! Touchstone file exported from HFSS 2025.1.0
!        File:           /home/solarstatiion/aedt-mcp/projects/microstrip_rebuilt_from_markdown_20260802_231316/microstrip_rebuilt_from_markdown.aedt
!        Generated:      11:16:14 PM Aug  2, 2026
!        Design:         Microstrip50Ohm
!        Project:        microstrip_rebuilt_from_markdown
!        Setup:          Setup1
!        Solution:       Sweep1
!
# GHz S MA R 50.000000
! Terminal data exported
! Port[1] = Port1
! Port[2] = Port2
1                              0.0336508877990446 144.513386554639 0.978491343193392 -112.89109916812 0.978491343193392 -112.89109916812 0.0334034701883169 146.761436822694 
! Gamma         0                0                0                0                
! Port Impedance         50               0                50               0                
1.05                           0.0341300834687763 139.755110646413 0.977439982767222 -118.534080505738 0.977439982767222 -118.534080505738 0.033888151290759 142.11498421224  
! Gamma         0                0                0                0                
! Port Impedance         50               0                50               0                
1.1                            0.0344397831133574 135.012358640801 0.976391118450422 -124.177505012932 0.976391118450423 -124.177505012931 0.0342071968828452 137.487513044076 
! Gamma         0                0                0                0                
! Port Impedance         50               0                50               0                
1.15                           0.0345728911552836 130.294173077101 0.975346753568995 -129.82151210291 0.975346753568997 -129.82151210291 0.0343537676293975 132.888954939135 
! Gamma         0                0                0                0                
! Port Impedance         50               0                50               0                
1.2                            0.0345233050235546 125.609478108219 0.974308427970777 -135.466242993254 0.974308427970779 -135.466242993253 0.0343219903726074 128.329348650171 
! Gamma         0                0                0                0                
! Port Impedance         50               0                50               0                
1.25                           0.03428600265011 120.967519635321 0.973277255917962 -141.111838631842 0.973277255917965 -141.111838631841 0.0341070563235435 123.81933428298  
! Gamma         0                0                0                0                
! Port Impedance         50               0                50               0                
1.3                            0.0338571303649508 116.378359222046 0.972253966295113 -146.75843780512 0.972253966295116 -146.75843780512 0.0337053252326276 119.370717273743 
! Gamma         0                0                0                0                
! Port Impedance         50               0                50               0                
1.35                           0.0332340937604449 111.853470376286 0.971238943716164 -152.406175455795 0.971238943716167 -152.406175455795 0.0331144393153289 114.997156141968 
! Gamma         0                0                0                0                
! Port Impedance         50               0                50               0                
1.4                            0.0324156560595694 107.406504095338 0.970232269374098 -158.055181220642 0.970232269374101 -158.055181220642 0.0323334532792093 110.715048234828 
! Gamma         0                0                0                0                
! Port Impedance         50               0                50               0                
1.45                           0.031402051284378 103.054322420367 0.969233760745102 -163.705578185367 0.969233760745104 -163.705578185367 0.0313629905739554 106.544721775396 
! Gamma         0                0                0                0                
! Port Impedance         50               0                50               0                
1.5                            0.0301951238139137 98.8184533440373 0.968243009524602 -169.357481843092 0.968243009524605 -169.357481843092 0.0302054419463719 102.512099237666 
! Gamma         0                0                0                0                
! Port Impedance         50               0                50               0                
1.55                           0.0287985131195813 94.72721500658   0.967259417424815 -175.010999236186 0.967259417424816 -175.010999236186 0.0288652323082852 98.6510919055897 
! Gamma         0                0                0                0                
! Port Impedance         50               0                50               0                
1.6                            0.027217915249617 90.8189246994206 0.966282229692201 179.333771741942 0.966282229692201 179.333771741942 0.0273491991619709 95.0071461729974 
! Gamma         0                0                0                0                
! Port Impedance         50               0                50               0                
1.65                           0.025461476442729 87.1469136665362 0.96531056639908 173.67674290833  0.96531056639908 173.67674290833  0.0256671568502837 91.642638411288  
! Gamma         0                0                0                0                
! Port Impedance         50               0                50               0                
1.7                            0.0235404206223861 83.7876433116026 0.964343451718707 168.017836235268 0.964343451718707 168.017836235268 0.0238327785927767 88.6452947524071 
! Gamma         0                0                0                0                
! Port Impedance         50               0                50               0                
1.75                           0.021470107080025 80.8543337947551 0.963379841501519 162.356984193067 0.963379841501518 162.356984193067 0.021865038836459 86.1416398814805 
! Gamma         0                0                0                0                
! Port Impedance         50               0                50               0                
1.8                            0.0192719169871783 78.5207368854959 0.962418649528487 156.694129998399 0.962418649528485 156.694129998399 0.019790675476228 84.318844036892  
! Gamma         0                0                0                0                
! Port Impedance         50               0                50               0                
1.85                           0.0169768217638416 77.0641280198443 0.961458772824752 151.029227768063 0.96145877282475 151.029227768063 0.0176485606127693 83.4602265508568 
! Gamma         0                0                0                0                
! Port Impedance         50               0                50               0                
1.9                            0.0146325477701938 76.9449331825243 0.960499116375069 145.362242570255 0.960499116375068 145.362242570255 0.0154976839916502 84.0004429037128 
! Gamma         0                0                0                0                
! Port Impedance         50               0                50               0                
1.95                           0.0123187330556387 78.9510624998152 0.959538617496785 139.693150358494 0.959538617496784 139.693150358494 0.0134317212493101 86.596234915484  
! Gamma         0                0                0                0                
! Port Impedance         50               0                50               0                
2                              0.0101794313441039 84.4110342728238 0.958576270003552 134.021937767922 0.95857627000355 134.021937767922 0.0116034015086656 92.1466306657135 
! Gamma         0                0                0                0                
! Port Impedance         50               0                50               0                
2.05                           0.00848364316622835 95.177587709981  0.957611148143247 128.348601750272 0.957611148143246 128.348601750272 0.0102517287009266 101.48244001311  
! Gamma         0                0                0                0                
! Port Impedance         50               0                50               0                
2.1                            0.0076642525628784 111.91109877939  0.956642430127868 122.67314902289  0.956642430127868 122.67314902289  0.00968051049111323 114.228376279597 
! Gamma         0                0                0                0                
! Port Impedance         50               0                50               0                
2.15                           0.00809128225860225 130.273275194162 0.955669420903765 116.995595309026 0.955669420903765 116.995595309026 0.0101002840354622 127.653316574766 
! Gamma         0                0                0                0                
! Port Impedance         50               0                50               0                
2.2                            0.00965577117900768 143.935760857386 0.954691573650131 111.315964351119 0.954691573650131 111.315964351119 0.011448954606296 138.408955845016 
! Gamma         0                0                0                0                
! Port Impedance         50               0                50               0                
2.25                           0.011940885067693 151.609830527465 0.953708509354514 105.634286686098 0.953708509354515 105.634286686098 0.0134700448808199 145.278865525051 
! Gamma         0                0                0                0                
! Port Impedance         50               0                50               0                
2.3                            0.0146112426178929 155.006083314771 0.952720033707376 99.9505981812254 0.952720033707377 99.9505981812254 0.0159079977552717 148.827552807543 
! Gamma         0                0                0                0                
! Port Impedance         50               0                50               0                
2.35                           0.0174725886758679 155.746422071116 0.951726150493134 94.2649383405008 0.951726150493135 94.2649383405008 0.0185817029471551 150.000137995842 
! Gamma         0                0                0                0                
! Port Impedance         50               0                50               0                
2.4                            0.0204131584318489 154.842240863524 0.950727070639683 88.5773484043167 0.950727070639685 88.5773484043167 0.0213722973467851 149.550549782035 
! Gamma         0                0                0                0                
! Port Impedance         50               0                50               0                
2.45                           0.0233615716751633 152.883774132428 0.949723216126783 82.8878692783823 0.949723216126785 82.8878692783823 0.0241988990975684 147.989346606557 
! Gamma         0                0                0                0                
! Port Impedance         50               0                50               0                
2.5                            0.0262663166410065 150.221721304738 0.948715218047219 77.1965393409974 0.948715218047221 77.1965393409973 0.0270021746959369 145.650188751455 
! Gamma         0                0                0                0                
! Port Impedance         50               0                50               0                
2.55                           0.0290862453490264 147.072851647337 0.947703908261752 71.5033921898828 0.947703908261753 71.5033921898828 0.0297351265324703 142.752727598486 
! Gamma         0                0                0                0                
! Port Impedance         50               0                50               0                
2.6                            0.0317860831368485 143.577044457185 0.94669030428458 65.8084544001362 0.946690304284581 65.8084544001362 0.0323581539891747 139.444834155612 
! Gamma         0                0                0                0                
! Port Impedance         50               0                50               0                
2.65                           0.0343342586296642 139.828403049947 0.945675587272881 60.1117433728108 0.945675587272881 60.1117433728108 0.0348364250591653 135.82880376189  
! Gamma         0                0                0                0                
! Port Impedance         50               0                50               0                
2.7                            0.0367018596342685 135.892792077252 0.944661073261815 54.4132653585087 0.944661073261815 54.4132653585087 0.0371384890274368 131.97743489125  
! Gamma         0                0                0                0                
! Port Impedance         50               0                50               0                
2.75                           0.0388621639334807 131.818111462693 0.943648178073228 48.7130137417768 0.943648178073228 48.7130137417767 0.0392355688967055 127.944019671167 
! Gamma         0                0                0                0                
! Port Impedance         50               0                50               0                
2.8                            0.0407904769654374 127.640557695999 0.942638376619008 43.0109676697007 0.942638376619007 43.0109676697007 0.0411012354973529 123.768689570461 
! Gamma         0                0                0                0                
! Port Impedance         50               0                50               0                
2.85                           0.0424641387692869 123.388595606994 0.941633157604839 37.3070911017728 0.941633157604838 37.3070911017728 0.0427113003064349 119.482553783972 
! Gamma         0                0                0                0                
! Port Impedance         50               0                50               0                
2.9                            0.0438626259603404 119.085587993537 0.940633974903389 31.6013323479254 0.940633974903387 31.6013323479254 0.0440438347044474 115.110479828108 
! Gamma         0                0                0                0                
! Port Impedance         50               0                50               0                
2.95                           0.0449677071525178 114.751625616794 0.939642197094763 25.8936241477928 0.939642197094761 25.8936241477928 0.0450792616415966 110.673028158342 
! Gamma         0                0                0                0                
! Port Impedance         50               0                50               0                
3                              0.045763628237041 110.404883306025 0.938659056854889 20.1838843271995 0.938659056854888 20.1838843271995 0.045800487238723 106.187858449911 
! Gamma         0                0                0                0                
! Port Impedance         50               0                50               0                
3.05                           0.046237314719087 106.062710321552 0.937685601999323 14.4720170480962 0.937685601999322 14.4720170480962 0.0461930526110509 101.670813377983 
! Gamma         0                0                0                0                
! Port Impedance         50               0                50               0                
3.1                            0.0463785855932193 101.742600742728 0.936722650053091 8.7579146463724  0.93672265005309 8.75791464637239 0.0462452942426027 97.1368225797854 
! Gamma         0                0                0                0                
! Port Impedance         50               0                50               0                
3.15                           0.0461803790133902 97.4631608273238 0.935770748210839 3.04146002891387 0.935770748210838 3.04146002891384 0.0459485067497455 92.600737056764  
! Gamma         0                0                0                0                
! Port Impedance         50               0                50               0                
3.2                            0.0456389956221683 93.2451852807063 0.934830140472509 -2.67747042218072 0.934830140472507 -2.67747042218071 0.0452971061589011 88.0781941076771 
! Gamma         0                0                0                0                
! Port Impedance         50               0                50               0                
3.25                           0.044754372087256 89.1129707901807 0.933900743587101 -8.39900351327922 0.9339007435871  -8.39900351327922 0.0442887958452069 83.5866231017869 
! Gamma         0                0                0                0                
! Port Impedance         50               0                50               0                
3.3                            0.0435304067647069 85.0960366208046 0.9329821332123  -14.1232655673871 0.932982133212298 -14.1232655673871 0.0429247420340131 79.1465374515294 
! Gamma         0                0                0                0                
! Port Impedance         50               0                50               0                
3.35                           0.0419753740495568 81.2314989341435 0.932073541404648 -19.8503785326169 0.932073541404647 -19.8503785326169 0.0412097727156315 74.7833312730564 
! Gamma         0                0                0                0                
! Port Impedance         50               0                50               0                
3.4                            0.0401024884372963 77.5674779195143 0.931173866200073 -25.5804560027275 0.931173866200072 -25.5804560027275 0.0391526255976055 70.529939530909  
! Gamma         0                0                0                0                
! Port Impedance         50               0                50               0                
3.45                           0.0379307220092841 74.1681399960794 0.930281693636477 -31.3135992934164 0.930281693636476 -31.3135992934165 0.0367662926183743 66.430989624711  
! Gamma         0                0                0                0                
! Port Impedance         50               0                50               0                
3.5                            0.0354860558997019 71.1213480957934 0.929395332120392 -37.0498937251276 0.929395332120391 -37.0498937251276 0.0340685520632546 62.5496042217203 
! Gamma         0                0                0                0                
! Port Impedance         50               0                50               0                
3.55                           0.0328034877744352 68.550488816973  0.928512858562002 -42.7894052647833 0.928512858562001 -42.7894052647833 0.0310828710753153 58.9791128924516 
! Gamma         0                0                0                0                
! Port Impedance         50               0                50               0                
3.6                            0.029930380664638 66.6329108035272 0.927632175213674 -48.532177674569 0.927632175213673 -48.532177674569 0.0278400673855894 55.8643163947565 
! Gamma         0                0                0                0                
! Port Impedance         50               0                50               0                
3.65                           0.0269322214663698 65.6282623501057 0.926751075664905 -54.2782303054246 0.926751075664904 -54.2782303054246 0.0243816160026881 53.4424319773391 
! Gamma         0                0                0                0                
! Port Impedance         50               0                50               0                
3.7                            0.0239026717332285 65.91899112724   0.925867317991762 -60.027556656164 0.925867317991762 -60.027556656164 0.0207667855349844 52.1271068781596 
! Gamma         0                0                0                0                
! Port Impedance         50               0                50               0                
3.75                           0.0209807545707201 68.054298725712  0.924978702652936 -65.7801237963767 0.924978702652936 -65.7801237963767 0.017089479287221 52.6914012302423 
! Gamma         0                0                0                0                
! Port Impedance         50               0                50               0                
3.8                            0.0183770214058043 72.7411406191464 0.924083152389188 -71.5358727229417 0.924083152389188 -71.5358727229417 0.0135217435061301 56.6727700809451 
! Gamma         0                0                0                0                
! Port Impedance         50               0                50               0                
3.85                           0.0163982031188236 80.593439090521  0.92317879113917 -77.2947196869152 0.923178791139169 -77.2947196869152 0.0104302891556094 67.0754553802143 
! Gamma         0                0                0                0                
! Port Impedance         50               0                50               0                
3.9                            0.0154180631638707 91.3579836414465 0.922264018850803 -83.0565584908174 0.922264018850804 -83.0565584908174 0.00860387902122266 87.4833368908559 
! Gamma         0                0                0                0                
! Port Impedance         50               0                50               0                
3.95                           0.0157134233771518 103.100902667933 0.92133757905855 -88.8212637173085 0.92133757905855 -88.8212637173085 0.00902302202893396 112.776386638126 
! Gamma         0                0                0                0                
! Port Impedance         50               0                50               0                
4                              0.017258904437014 113.125021825065 0.920398616222691 -94.5886948105066 0.92039861622269 -94.5886948105066 0.0115075905611086 130.071263933488 
! Gamma         0                0                0                0                
! Port Impedance         50               0                50               0                
4.05                           0.0197611757391597 120.002058280797 0.919446720090588 -100.358700892491 0.919446720090589 -100.358700892491 0.0150670516115793 138.131938254469 
! Gamma         0                0                0                0                
! Port Impedance         50               0                50               0                
4.1                            0.0228736668229716 123.842956158679 0.918481954738099 -106.131126161699 0.918481954738099 -106.131126161699 0.0190679115538481 140.839935667396 
! Gamma         0                0                0                0                
! Port Impedance         50               0                50               0                
4.15                           0.0263219091398052 125.342553704637 0.91750487047042 -111.905815688758 0.917504870470421 -111.905815688758 0.0232156606448503 140.69531478674  
! Gamma         0                0                0                0                
! Port Impedance         50               0                50               0                
4.2                            0.0299137874163675 125.171750847668 0.916516497387175 -117.682621400412 0.916516497387176 -117.682621400412 0.0273586682001742 138.947182411585 
! Gamma         0                0                0                0                
! Port Impedance         50               0                50               0                
4.25                           0.0335150977551604 123.828162325021 0.915518320121123 -123.461408025154 0.915518320121123 -123.461408025154 0.0314027694509721 136.233752845129 
! Gamma         0                0                0                0                
! Port Impedance         50               0                50               0                
4.3                            0.0370276829064093 121.654278063279 0.914512234013244 -129.242058765873 0.914512234013244 -129.242058765873 0.0352794632550318 132.904071490785 
! Gamma         0                0                0                0                
! Port Impedance         50               0                50               0                
4.35                           0.0403756521483909 118.882945158083 0.913500483755385 -135.024480466163 0.913500483755385 -135.024480466163 0.0389334356038694 129.162588812119 
! Gamma         0                0                0                0                
! Port Impedance         50               0                50               0                
4.4                            0.0434974846675039 115.674373989304 0.912485586280145 -140.808608048022 0.912485586280145 -140.808608048022 0.0423173071376998 125.136617666316 
! Gamma         0                0                0                0                
! Port Impedance         50               0                50               0                
4.45                           0.046341619020702 112.141237992111 0.911470240372411 -146.594408019363 0.911470240372411 -146.594408019363 0.0453893206254593 120.909854216518 
! Gamma         0                0                0                0                
! Port Impedance         50               0                50               0                
4.5                            0.0488640053796178 108.36489715546  0.910457226086531 -152.381880879375 0.910457226086531 -152.381880879375 0.0481123261878094 116.54012191298  
! Gamma         0                0                0                0                
! Port Impedance         50               0                50               0                
4.55                           0.0510267588634433 104.405843283234 0.909449297551355 -158.17106228729 0.909449297551354 -158.17106228729 0.0504533784421572 112.069333122395 
! Gamma         0                0                0                0                
! Port Impedance         50               0                50               0                
4.6                            0.0527974384308535 100.310530439701 0.908449073111181 -163.962022904097 0.908449073111181 -163.962022904097 0.0523836365303004 107.529402794794 
! Gamma         0                0                0                0                
! Port Impedance         50               0                50               0                
4.65                           0.0541486875149356 96.1159660089539 0.907458926969741 -169.754866865621 0.90745892696974 -169.754866865621 0.0538784189117867 102.945965713452 
! Gamma         0                0                0                0                
! Port Impedance         50               0                50               0                
4.7                            0.0550580880170779 91.8529200952213 0.906480886568365 -175.549728897272 0.906480886568365 -175.549728897272 0.054917338850113 98.3408713633584 
! Gamma         0                0                0                0                
! Port Impedance         50               0                50               0                
4.75                           0.0555081433777863 87.5482969426027 0.905516539836432 178.653229866199 0.905516539836432 178.653229866199 0.0554844831588284 93.7340033696752 
! Gamma         0                0                0                0                
! Port Impedance         50               0                50               0                
4.8                            0.0554863433371322 83.2270301153893 0.904566956204658 172.853827240327 0.904566956204658 172.853827240327 0.0555686165350914 89.1447584119104 
! Gamma         0                0                0                0                
! Port Impedance         50               0                50               0                
4.85                           0.0549852856729542 78.9137659703585 0.903632624877431 167.051866364792 0.903632624877431 167.051866364792 0.0551634060216563 84.593418955881  
! Gamma         0                0                0                0                
! Port Impedance         50               0                50               0                
4.9                            0.0540028461018479 74.6345618829165 0.902713413329579 161.247142881248 0.902713413329579 161.247142881248 0.054267669731349 80.1026200192466 
! Gamma         0                0                0                0                
! Port Impedance         50               0                50               0                
4.95                           0.0525424016633348 70.4188381432846 0.90180854833969 155.439452665982 0.901808548339689 155.439452665982 0.0528856644096162 75.6991270234389 
! Gamma         0                0                0                0                
! Port Impedance         50               0                50               0                
5                              0.0506131299087976 66.3018926851264 0.900916621112552 149.628599837143 0.900916621112552 149.628599837143 0.0510274414248656 71.4162139193724 
! Gamma         0                0                0                0                
! Port Impedance         50               0                50               0                
5.05                           0.0482304323054349 62.3284439619119 0.900035617196619 143.814404734315 0.900035617196618 143.814404734315 0.0487093260755369 67.2970835349774 
! Gamma         0                0                0                0                
! Port Impedance         50               0                50               0                
5.1                            0.0454165763815718 58.5579734438707 0.899162970990803 137.996711556712 0.899162970990804 137.996711556713 0.0459546212978068 63.400063793857  
! Gamma         0                0                0                0                
! Port Impedance         50               0                50               0                
5.15                           0.0422017394462818 55.0732307134705 0.898295643684228 132.175395346104 0.898295643684227 132.175395346104 0.0427947256101913 59.8068647057328 
! Gamma         0                0                0                0                
! Port Impedance         50               0                50               0                
5.2                            0.0386258158365966 51.9944250438352 0.897430222512764 126.350368012613 0.897430222512765 126.350368012613 0.0392710333432251 56.6362365469447 
! Gamma         0                0                0                0                
! Port Impedance         50               0                50               0                
5.25                           0.0347417324652295 49.5039510685716 0.896563038281593 120.521583125995 0.896563038281593 120.521583125995 0.0354383590800819 54.0674142526164 
! Gamma         0                0                0                0                
! Port Impedance         50               0                50               0                
5.3                            0.0306218774231002 47.8911538254238 0.895690297231933 114.689039231854 0.895690297231932 114.689039231854 0.0313714456234903 52.3816313224685 
! Gamma         0                0                0                0                
! Port Impedance         50               0                50               0                
5.35                           0.026371255165278 47.6353413965338 0.894808222564044 108.852781500952 0.894808222564044 108.852781500952 0.0271779498228023 52.0366079160957 
! Gamma         0                0                0                0                
! Port Impedance         50               0                50               0                
5.4                            0.0221556557041725 49.5558764267716 0.893913200309984 103.012901578997 0.893913200309984 103.012901578997 0.0230253098544284 53.7943222122408 
! Gamma         0                0                0                0                
! Port Impedance         50               0                50               0                
5.45                           0.0182622048473907 55.0286171195426 0.893001923819929 97.1695355723758 0.893001923819928 97.1695355723758 0.0191957305049805 58.8860881500559 
! Gamma         0                0                0                0                
! Port Impedance         50               0                50               0                
5.5                            0.0152095262382431 65.928461964968  0.892071530921516 91.3228601797091 0.892071530921516 91.3228601797091 0.0161792851228493 68.9073954736074 
! Gamma         0                0                0                0                
! Port Impedance         50               0                50               0                
5.55                           0.0137996031415827 82.7272268595711 0.891119727861077 85.4730870568874 0.891119727861077 85.4730870568874 0.0147083645292371 84.2347984735497 
! Gamma         0                0                0                0                
! Port Impedance         50               0                50               0                
5.6                            0.0146533312278438 100.726143944233 0.890144894455413 79.6204555809418 0.890144894455415 79.6204555809418 0.0153710515077905 101.015774832683 
! Gamma         0                0                0                0                
! Port Impedance         50               0                50               0                
5.65                           0.0174851829654633 113.742688996889 0.889146165474671 73.7652242519686 0.889146165474671 73.7652242519686 0.0179791147219448 113.737134654611 
! Gamma         0                0                0                0                
! Port Impedance         50               0                50               0                
5.7                            0.0215055622618636 120.815386161125 0.888123484126238 67.9076610386177 0.888123484126239 67.9076610386178 0.0218269678990877 121.000127655981 
! Gamma         0                0                0                0                
! Port Impedance         50               0                50               0                
5.75                           0.0261054447077683 123.723023652794 0.887077624584471 62.0480330277399 0.887077624584473 62.0480330277399 0.0263126060261789 124.170250504678 
! Gamma         0                0                0                0                
! Port Impedance         50               0                50               0                
5.8                            0.0309322176744447 124.05769032856  0.88601018176372 56.1865957795916 0.886010181763722 56.1865957795916 0.0310669020323453 124.715558027455 
! Gamma         0                0                0                0                
! Port Impedance         50               0                50               0                
5.85                           0.0357798590196995 122.801038071314 0.884923527901889 50.3235828140369 0.884923527901891 50.3235828140369 0.0358691681908322 123.604588933498 
! Gamma         0                0                0                0                
! Port Impedance         50               0                50               0                
5.9                            0.040515025442187 120.525458549362 0.883820736939203 44.459195658937  0.883820736939205 44.459195658937  0.0405762330387283 121.421127133456 
! Gamma         0                0                0                0                
! Port Impedance         50               0                50               0                
5.95                           0.0450415796808753 117.571887046545 0.882705479069173 38.5935948788116 0.882705479069176 38.5935948788115 0.0450855936374269 118.519031474715 
! Gamma         0                0                0                0                
! Port Impedance         50               0                50               0                
6                              0.0492842332163906 114.151858630244 0.881581889135481 32.726892470348  0.881581889135484 32.7268924703479 0.0493177213734768 115.119915018724 
! Gamma         0                0                0                0                
! Port Impedance         50               0                50               0                
6.05                           0.0531808207403207 110.402524712138 0.880454413686475 26.8591459628693 0.880454413686477 26.8591459628693 0.0532074934497644 111.368106543383 
! Gamma         0                0                0                0                
! Port Impedance         50               0                50               0                
6.1                            0.0566785441455841 106.41671462677  0.879327642427143 20.9903544987042 0.879327642427144 20.9903544987041 0.0566999432535527 107.361391737718 
! Gamma         0                0                0                0                
! Port Impedance         50               0                50               0                
6.15                           0.0597321253586112 102.259945737685 0.878206130489705 15.1204570934608 0.878206130489707 15.1204570934607 0.0597481231812747 103.168648224649 
! Gamma         0                0                0                0                
! Port Impedance         50               0                50               0                
6.2                            0.0623029203544017 97.9804534236836 0.877094218357824 9.24933319280593 0.877094218357825 9.2493331928059  0.062312042865671 98.8403276242506 
! Gamma         0                0                0                0                
! Port Impedance         50               0                50               0                
6.25                           0.0643585362084131 93.6153711351283 0.875995856419434 3.37680555400259 0.875995856419434 3.3768055540025  0.0643581745571193 94.4149388230873 
! Gamma         0                0                0                0                
! Port Impedance         50               0                50               0                
6.3                            0.0658727185690131 89.1947268447569 0.874914440996792 -2.49735460931868 0.874914440996792 -2.49735460931873 0.0658592651873499 89.9232395514628 
! Gamma         0                0                0                0                
! Port Impedance         50               0                50               0                
6.35                           0.066825386334425 84.7441811187689 0.873852668326428 -8.37342036860637 0.873852668326428 -8.37342036860651 0.0667943160192863 85.3910935174193 
! Gamma         0                0                0                0                
! Port Impedance         50               0                50               0                
6.4                            0.0672027465013395 80.287049057179  0.872812412359978 -14.2516999405126 0.872812412359978 -14.2516999405126 0.0671486532743956 80.8415564704579 
! Gamma         0                0                0                0                
! Port Impedance         50               0                50               0                
6.45                           0.0669974532885929 75.8459497334731 0.871794631456597 -20.1325259736062 0.871794631456597 -20.1325259736063 0.0669140474046216 76.2965473652333 
! Gamma         0                0                0                0                
! Port Impedance         50               0                50               0                
6.5                            0.0662087952403378 71.4443296817498 0.870799308066501 -26.0162436350885 0.8707993080665  -26.0162436350885 0.0660888595123494 71.7783575436967 
! Gamma         0                0                0                0                
! Port Impedance         50               0                50               0                
6.55                           0.0648429093552691 67.1080734818164 0.869825424390557 -31.9031979244494 0.869825424390556 -31.9031979244495 0.0646782086614492 67.3112130583232 
! Gamma         0                0                0                0                
! Port Impedance         50               0                50               0                
6.6                            0.0629130373081351 62.8674313629843 0.868870975769105 -37.7937206807695 0.868870975769104 -37.7937206807696 0.0626941685450339 62.9231195718353 
! Gamma         0                0                0                0                
! Port Impedance         50               0                50               0                
6.65                           0.0604398604200018 58.7595654593216 0.867933022230707 -43.688117774764 0.867933022230705 -43.688117774764 0.0601560208941628 58.6482911662865 
! Gamma         0                0                0                0                
! Port Impedance         50               0                50               0                
6.7                            0.0574519842392557 54.8321663837899 0.867007777246821 -49.5866569843577 0.867007777246819 -49.5866569843576 0.0570906226716656 54.5306210727009 
! Gamma         0                0                0                0                
! Port Impedance         50               0                50               0                
6.75                           0.0539867030340148 51.1488723001908 0.866090731324057 -55.4895570424011 0.866090731324057 -55.4895570424011 0.0535329963019859 50.6289567587961 
! Gamma         0                0                0                0                
! Port Impedance         50               0                50               0                
6.8                            0.0500912841611879 47.7977359682098 0.865176806661192 -61.3969783163188 0.865176806661192 -61.3969783163188 0.049527351134523 47.0255267495381 
! Gamma         0                0                0                0                
! Port Impedance         50               0                50               0                
6.85                           0.0458252242261112 44.9049215636085 0.864260537750908 -67.3090155316826 0.864260537750908 -67.3090155316826 0.0451289432233588 43.8400092545201 
! Gamma         0                0                0                0                
! Port Impedance         50               0                50               0                
6.9                            0.0412643544678268 42.6574919167163 0.863336271572607 -73.2256928852523 0.863336271572608 -73.2256928852522 0.0404076024415722 41.2540078455659 
! Gamma         0                0                0                0                
! Port Impedance         50               0                50               0                
6.95                           0.036508548633401 41.3419226368863 0.862398379965687 -79.1469618090699 0.862398379965687 -79.1469618090698 0.0354546969332439 39.5552256172421 
! Gamma         0                0                0                0                
! Port Impedance         50               0                50               0                
7                              0.0316965735475335 41.4081739323298 0.861441475959655 -85.0727015478732 0.861441475959654 -85.0727015478731 0.0303974824675557 39.2189742889097 
! Gamma         0                0                0                0                
! Port Impedance         50               0                50               0                
7.05                           0.0270348701860161 43.5647757007979 0.860460625333905 -91.0027226006126 0.860460625333906 -91.0027226006126 0.0254297759314907 41.0543913569061 
! Gamma         0                0                0                0                
! Port Impedance         50               0                50               0                
7.1                            0.0228499199345539 48.8547204777004 0.859451544543533 -96.9367729575623 0.859451544543533 -96.9367729575622 0.0208772715032541 46.4121410451496 
! Gamma         0                0                0                0                
! Port Impedance         50               0                50               0                
7.15                           0.0196571636135114 58.4047526488991 0.858410776420222 -102.874546942658 0.858410776420225 -102.874546942658 0.0173139171049467 57.1201941734292 
! Gamma         0                0                0                0                
! Port Impedance         50               0                50               0                
7.2                            0.0181337422892265 72.08355671086   0.857335835758992 -108.815696352319 0.857335835758992 -108.815696352319 0.0156086662946641 73.6440231627264 
! Gamma         0                0                0                0                
! Port Impedance         50               0                50               0                
7.25                           0.0187437442368841 86.7296300823997 0.856225318023796 -114.759843473467 0.856225318023796 -114.759843473467 0.0164146028594827 91.4458945639248 
! Gamma         0                0                0                0                
! Port Impedance         50               0                50               0                
7.3                            0.0212729781318087 98.2245081150539 0.855078965909193 -120.706595471   0.855078965909194 -120.706595471   0.0193874110251054 104.441853501104 
! Gamma         0                0                0                0                
! Port Impedance         50               0                50               0                
7.35                           0.0250574321677852 105.249123247815 0.853897690311262 -126.655559564285 0.853897690311263 -126.655559564285 0.0236284604493906 111.578637257703 
! Gamma         0                0                0                0                
! Port Impedance         50               0                50               0                
7.4                            0.0294901523951027 108.646880822828 0.852683544293268 -132.60635836777 0.85268354429327 -132.60635836777 0.0284426827537056 114.568131001329 
! Gamma         0                0                0                0                
! Port Impedance         50               0                50               0                
7.45                           0.0341685349533127 109.570803074542 0.851439650764554 -138.55864475561 0.851439650764555 -138.55864475561 0.0334267520884519 114.987679639357 
! Gamma         0                0                0                0                
! Port Impedance         50               0                50               0                
7.5                            0.0388401636752374 108.870518232731 0.850170086700379 -144.512115625428 0.850170086700381 -144.512115625428 0.0383461809450723 113.821105062775 
! Gamma         0                0                0                0                
! Port Impedance         50               0                50               0                
7.55                           0.0433392650340352 107.094760120499 0.848879728693128 -150.466523981203 0.848879728693128 -150.466523981202 0.0430513792410226 111.64609958327  
! Gamma         0                0                0                0                
! Port Impedance         50               0                50               0                
7.6                            0.0475490213218676 104.592170754091 0.8475740663314  -156.421688827256 0.847574066331402 -156.421688827256 0.0474371529938963 108.808982764937 
! Gamma         0                0                0                0                
! Port Impedance         50               0                50               0                
7.65                           0.0513819927022936 101.589037081692 0.84625899126467 -162.377502460178 0.846258991264673 -162.377502460178 0.0514240063737214 105.526444150102 
! Gamma         0                0                0                0                
! Port Impedance         50               0                50               0                
7.7                            0.0547701290668505 98.2374242783067 0.844940570767194 -168.333934857949 0.844940570767194 -168.333934857949 0.0549493175057631 101.940787717332 
! Gamma         0                0                0                0                
! Port Impedance         50               0                50               0                
7.75                           0.057659610399501 94.6437436217679 0.843624815136456 -174.291034989435 0.843624815136456 -174.291034989435 0.057963048551544 98.1502890088107 
! Gamma         0                0                0                0                
! Port Impedance         50               0                50               0                
7.8                            0.060008136746982 90.8858640084558 0.842317448349099 179.751071003494 0.842317448349099 179.751071003494 0.0604256225543099 94.2264985980312 
! Gamma         0                0                0                0                
! Port Impedance         50               0                50               0                
7.85                           0.0617834890135934 87.0236795932012 0.841023691077123 173.792184670729 0.841023691077124 173.79218467073  0.0623068784369114 90.2245809964893 
! Gamma         0                0                0                0                
! Port Impedance         50               0                50               0                
7.9                            0.062962765788117 83.1059394938548 0.839748064485583 167.832042963161 0.839748064485584 167.832042963161 0.0635855826272763 86.1898558902665 
! Gamma         0                0                0                0                
! Port Impedance         50               0                50               0                
7.95                           0.0635319921899122 79.1749519679258 0.838494222247469 161.87032847303  0.838494222247465 161.87032847303  0.064249241841867 82.1622528583796 
! Gamma         0                0                0                0                
! Port Impedance         50               0                50               0                
8                              0.0634859493916216 75.2701295617008 0.837264816985624 155.906681795691 0.837264816985614 155.90668179569  0.0642940963300136 78.1796609103013 
! Gamma         0                0                0                0                
! Port Impedance         50               0                50               0                
8.05                           0.0628281609833336 71.4310049963871 0.836061405947102 149.940715524206 0.836061405947098 149.940715524206 0.0637252492905402 74.2807902956331 
! Gamma         0                0                0                0                
! Port Impedance         50               0                50               0                
8.1                            0.0615710305490598 67.7001912551002 0.834884399189381 143.972029328593 0.834884399189372 143.972029328593 0.0625569400213136 70.5079958293814 
! Gamma         0                0                0                0                
! Port Impedance         50               0                50               0                
8.15                           0.0597361738614708 64.1267218416939 0.833733051960084 138.000225532613 0.833733051960076 138.000225532612 0.0608130139329007 66.9104597947198 
! Gamma         0                0                0                0                
! Port Impedance         50               0                50               0                
8.2                            0.0573550440702382 60.7702669173152 0.832605501325574 132.024924583303 0.83260550132556 132.024924583303 0.058527695167935 63.5481644380073 
! Gamma         0                0                0                0                
! Port Impedance         50               0                50               0                
8.25                           0.0544700260291685 57.7068817124076 0.831498845486416 126.045779812427 0.831498845486405 126.045779812427 0.0557468413256919 60.4971847817321 
! Gamma         0                0                0                0                
! Port Impedance         50               0                50               0                
8.3                            0.0511363014410222 55.0372208620881 0.830409262646564 120.062490914471 0.830409262646556 120.062490914471 0.0525299735243128 57.856982193569  
! Gamma         0                0                0                0                
! Port Impedance         50               0                50               0                
8.35                           0.0474250001872773 52.8985365340465 0.829332164814961 114.074815612478 0.829332164814944 114.074815612478 0.0489535537801231 55.760497885111  
! Gamma         0                0                0                0                
! Port Impedance         50               0                50               0                
8.4                            0.0434285155252366 51.4820967097466 0.828262380555729 108.082579049907 0.828262380555715 108.082579049907 0.0451162473050495 54.3876358896057 
! Gamma         0                0                0                0                
! Port Impedance         50               0                50               0                
8.45                           0.0392694277336192 51.0570896523332 0.827194359513964 102.085680532479 0.827194359513948 102.085680532479 0.0411472241147005 53.9812309505419 
! Gamma         0                0                0                0                
! Port Impedance         50               0                50               0                
8.5                            0.0351151283709654 51.9975985143952 0.826122390580155 96.0840973464991 0.826122390580143 96.0840973464996 0.0372186168551634 54.8591301618094 
! Gamma         0                0                0                0                
! Port Impedance         50               0                50               0                
8.55                           0.0311998893453509 54.7916773561681 0.825040824874306 90.0778854964064 0.825040824874285 90.0778854964068 0.0335618284278933 57.4005332427861 
! Gamma         0                0                0                0                
! Port Impedance         50               0                50               0                
8.6                            0.0278502977702378 59.9619940093122 0.82394429438269 84.067177330364  0.82394429438267 84.0671773303646 0.0304809800947037 61.9527908415127 
! Gamma         0                0                0                0                
! Port Impedance         50               0                50               0                
8.65                           0.0254876064402392 67.7516577409034 0.822827917112144 78.0521761537605 0.822827917112135 78.0521761537612 0.028340274137162 68.5816217106661 
! Gamma         0                0                0                0                
! Port Impedance         50               0                50               0                
8.7                            0.0245415770224029 77.5354861935786 0.821687480068275 72.0331480608171 0.821687480068268 72.033148060818  0.0274846965331046 76.707959274795  
! Gamma         0                0                0                0                
! Port Impedance         50               0                50               0                
8.75                           0.0252431410257706 87.5818791299037 0.820519592224388 66.0104113379549 0.820519592224384 66.0104113379552 0.0280914028352074 85.0372678341856 
! Gamma         0                0                0                0                
! Port Impedance         50               0                50               0                
8.8                            0.0274665024936528 95.9935469676893 0.819321800909705 59.9843239027627 0.819321800909694 59.9843239027633 0.030066669161843 92.1658421810868 
! Gamma         0                0                0                0                
! Port Impedance         50               0                50               0                
8.85                           0.030826648982304 101.865924602316 0.818092666662653 53.9552693332657 0.818092666662656 53.9552693332663 0.0331064493126414 97.3118473718705 
! Gamma         0                0                0                0                
! Port Impedance         50               0                50               0                
8.9                            0.0348968648903131 105.2944004976   0.816831793494   47.9236421083948 0.816831793493994 47.9236421083951 0.0368466221630669 100.409383002752 
! Gamma         0                0                0                0                
! Port Impedance         50               0                50               0                
8.95                           0.0393285113358083 106.778564255227 0.815539813588276 41.8898327180632 0.815539813588282 41.889832718064  0.0409649653453975 101.766731473515 
! Gamma         0                0                0                0                
! Port Impedance         50               0                50               0                
9                              0.0438657552086483 106.83146665813  0.8142183276273  35.8542133075333 0.814218327627317 35.8542133075329 0.0452089962997692 101.771741795699 
! Gamma         0                0                0                0                
! Port Impedance         50               0                50               0                
9.05                           0.0483240327921738 105.8594613475   0.812869804025487 29.8171244951475 0.812869804025495 29.8171244951474 0.049387781315368 100.764854520275 
! Gamma         0                0                0                0                
! Port Impedance         50               0                50               0                
9.1                            0.052567707320673 104.159300333701 0.811497442308403 23.7788639462525 0.8114974423084  23.7788639462522 0.0533564398906919 99.0115960432273 
! Gamma         0                0                0                0                
! Port Impedance         50               0                50               0                
9.15                           0.0564946388296971 101.943840033431 0.81010500753876 17.7396772020698 0.810105007538772 17.7396772020699 0.0570033492191886 96.7110441783416 
! Gamma         0                0                0                0                
! Port Impedance         50               0                50               0                
9.2                            0.0600267128633027 99.3672852113982 0.808696644016777 11.6997511548376 0.808696644016772 11.6997511548377 0.0602414377568135 94.0117748794124 
! Gamma         0                0                0                0                
! Port Impedance         50               0                50               0                
9.25                           0.0631042403954265 96.5441070668113 0.807276677398781 5.65921043507332 0.807276677398794 5.65921043507274 0.0630026562657883 91.0262179488178 
! Gamma         0                0                0                0                
! Port Impedance         50               0                50               0                
9.3                            0.065682675930404 93.5621871289545 0.80584941486078 -0.381883160686179 0.805849414860796 -0.381883160686857 0.0652345483502851 87.8416680987402 
! Gamma         0                0                0                0                
! Port Impedance         50               0                50               0                
9.35                           0.0677307028591765 90.4918195810246 0.804418952980322 -6.4235282167713 0.804418952980325 -6.423528216772  0.0668981372742172 84.5283537394748 
! Gamma         0                0                0                0                
! Port Impedance         50               0                50               0                
9.4                            0.0692291446674401 87.3919674184585 0.802989002640408 -12.4657783785535 0.802989002640418 -12.4657783785536 0.0679666374748193 81.1453706208528 
! Gamma         0                0                0                0                
! Port Impedance         50               0                50               0                
9.45                           0.070170406867515 84.3147523189947 0.801562739508052 -18.5087344628647 0.801562739508059 -18.5087344628651 0.0684247067383042 77.7452068714098 
! Gamma         0                0                0                0                
! Port Impedance         50               0                50               0                
9.5                            0.0705582955167951 81.308820131209  0.800142687551456 -24.5525344240661 0.800142687551458 -24.5525344240662 0.0682680901773269 74.3774254152727 
! Gamma         0                0                0                0                
! Port Impedance         50               0                50               0                
9.55                           0.0704081348650063 78.4219837834904 0.798730641681489 -30.5973417157341 0.798730641681489 -30.5973417157338 0.0675035941302335 71.0919391660425 
! Gamma         0                0                0                0                
! Port Impedance         50               0                50               0                
9.6                            0.0697471429962689 75.7033729635888 0.797327633980421 -36.6433326851847 0.797327633980421 -36.6433326851847 0.066149386899765 67.9422324086814 
! Gamma         0                0                0                0                
! Port Impedance         50               0                50               0                
9.65                           0.0686150327535931 73.2051800769695 0.795933946158101 -42.6906837152528 0.795933946158085 -42.6906837152529 0.0642356689618084 64.9888411527809 
! Gamma         0                0                0                0                
! Port Impedance         50               0                50               0                
9.7                            0.0670647902860184 70.9839522872922 0.794549168892119 -48.739558882017 0.794549168892114 -48.7395588820169 0.0618058000504662 62.3033883121294 
! Gamma         0                0                0                0                
! Port Impedance         50               0                50               0                
9.75                           0.0651635429662794 69.101209302576  0.793172306605928 -54.7900989263929 0.793172306605901 -54.7900989263923 0.0589180245115188 59.9734409436546 
! Gamma         0                0                0                0                
! Port Impedance         50               0                50               0                
9.8                            0.0629933525793733 67.6229398757919 0.791801924059815 -60.8424123392545 0.791801924059782 -60.8424123392544 0.0556480050134329 58.1083334996203 
! Gamma         0                0                0                0                
! Port Impedance         50               0                50               0                
9.85                           0.0606516415320448 66.6172409023496 0.790436328927782 -66.8965693322045 0.790436328927764 -66.8965693322039 0.0520924467920303 56.845682043712  
! Gamma         0                0                0                0                
! Port Impedance         50               0                50               0                
9.9                            0.0582507604948872 66.1490700944486 0.789073782370121 -72.9525994077134 0.789073782370101 -72.9525994077131 0.0483741050165717 56.3571374909427 
! Gamma         0                0                0                0                
! Port Impedance         50               0                50               0                
9.95                           0.055915937296787 66.2709953314667 0.78771272756407 -79.0104931524576 0.787712727564059 -79.0104931524566 0.0446482038530718 56.8490585806393 
! Gamma         0                0                0                0                
! Port Impedance         50               0                50               0                
10                             0.0537805872651287 67.0093984696777 0.786352024309657 -85.0702087565447 0.786352024309656 -85.0702087565447 0.0411092096134797 58.5478777524986 
! Gamma         0                0                0                0                
! Port Impedance         50               0                50               0                
