! COMSOL 6.4 full two-direction lumped-port sweep
# Hz S RI R 50
1000000000 -0.0505735932267981 0.0333734721034317 -0.401875070540011 -0.897751838033764 -0.401875091258388 -0.897752028070448 -0.0497715444053016 0.0351007708148001
1050000000 -0.0472880868302864 0.0376319787432405 -0.488881934497219 -0.852489548752446 -0.488881991117913 -0.852489735209757 -0.0462519912836662 0.0393847067609022
1100000000 -0.0434267655079045 0.0412844742011611 -0.570889871156836 -0.798819369439917 -0.570889957392772 -0.798819540213419 -0.0421473660793517 0.043028311951892
1150000000 -0.0391011102300103 0.0442445582778031 -0.647090537747338 -0.737283953170013 -0.647090643990646 -0.737284100132385 -0.0375749308533329 0.0459431358033898
1200000000 -0.0344352452946309 0.0464454057684351 -0.716733298197091 -0.668502794623351 -0.716733413854545 -0.668502914481328 -0.0326649992515483 0.0480613482111038
1250000000 -0.0295627054736196 0.0478416060984067 -0.779132330774869 -0.593166339747685 -0.779132446279148 -0.593166433757023 -0.0275575093760526 0.0493376551224887
1300000000 -0.0246229170400646 0.0484105052869341 -0.833673201687265 -0.512029476907014 -0.833673309832514 -0.512029549922045 -0.0223982970302519 0.049750680251135
1350000000 -0.0197574645290418 0.0481529982842495 -0.87981885646254 -0.425904439453009 -0.879818953126439 -0.425904498757707 -0.01733514774276 0.0493037585043445
1400000000 -0.0151062260444313 0.0470937299592557 -0.917114977640756 -0.335653152876402 -0.917115062107116 -0.335653207016935 -0.0125137174839754 0.0480250981599057
1450000000 -0.0108034692015661 0.0452806755984764 -0.945194653979957 -0.242179064659218 -0.945194729014753 -0.242179122312317 -0.00807342152591151 0.0459672827434129
1500000000 -0.00697400696848174 0.0427840862796225 -0.963782303722324 -0.146418501802696 -0.963782375436375 -0.146418570653534 -0.0041433980824511 0.0432060994039204
1550000000 -0.00372951757223081 0.0396948005527112 -0.972696793018306 -0.0493316095965376 -0.972696870466754 -0.0493316952257901 -0.000838658021860894 0.0398386979854339
1600000000 -0.0011651350388588 0.0361219412684691 -0.971853690846723 0.0481070647300297 -0.97185378529228 0.0481069598820824 0.00174346612933363 0.0359811037273509
1650000000 0.000643583515014789 0.0321900349176409 -0.961266604107801 0.144918268632896 -0.96126672790666 0.14491814609824 0.00352645985583511 0.0317651262942303
1700000000 0.00164321144775244 0.0280356100701934 -0.941047541396737 0.240127934374025 -0.941047706531413 0.240127800117737 0.00445724765977005 0.0273347282078131
1750000000 0.00180443201731535 0.023803350866598 -0.911406261622995 0.332777163766913 -0.911406478001926 0.332777028097271 0.00450819667691427 0.0228419360930577
1800000000 0.00112336002370164 0.0196419002524656 -0.872648574357031 0.421932197073244 -0.87264884810884 0.421932073871322 0.0036784169378496 0.0184423976428351
1850000000 -0.000377862586903355 0.0156994248733245 -0.825173572617733 0.506694245289297 -0.82517390470321 0.506694150535659 0.00199428929321996 0.0142907049135184
1900000000 -0.00265124609824792 0.0121190682775814 -0.76946979560675 0.586209056910746 -0.769470181099571 0.586209006663268 -0.000490826981527803 0.0105356194542273
1950000000 -0.00562393352077191 0.00903443033103621 -0.706110338245361 0.659676085105911 -0.706110766549231 0.659676093278673 -0.00369773034694898 0.00731534582289588
2000000000 -0.0091999827260091 0.00656521759130893 -0.635746945630146 0.726357119824974 -0.635747401687521 0.726357196245129 -0.00752335308123833 0.00475300632809519
2050000000 -0.0132629232633917 0.00481321108709205 -0.559103152816437 0.785584252316715 -0.559103619076729 0.785584401518515 -0.0118435444296463 0.00295247061839678
2100000000 -0.0176790327615011 0.00385869397302048 -0.476966552585498 0.836767047216761 -0.476967011263144 0.836767268223875 -0.0165165984941686 0.00199468858995256
2150000000 -0.0223012503207425 0.00375747172073103 -0.390180294831819 0.879398809872233 -0.390180729920387 0.87939909690699 -0.0213874359355625 0.00193466385975082
2200000000 -0.0269736188110739 0.00453860202511225 -0.299633939660166 0.913061853604352 -0.299634338321668 0.913062197385974 -0.0262923222117109 0.00279918800506665
2250000000 -0.0315361257585948 0.00620293101314518 -0.206253801017366 0.937431692494094 -0.206254154246698 0.937432081691881 -0.0310639822654551 0.0045854334316359
2300000000 -0.0358297946212218 0.00872250745737317 -0.110992927758165 0.95228010896681 -0.110993230480722 0.952280531475963 -0.0355369534402307 0.00726047599461246
2350000000 -0.0397018654977449 0.0120409186261547 -0.0148208738798473 0.957477070645523 -0.0148211247498549 0.957477514570676 -0.0395530057825709 0.0107617884838682
2400000000 -0.0430108971706726 0.0160745613196319 0.0812865908962711 0.952991496258537 0.0812863897833139 0.952991950686794 -0.0429664522912759 0.0149987140886242
2450000000 -0.0456316209831272 0.0207148307543889 0.176357684692948 0.938890894504525 0.176357528115915 0.93889135023644 -0.0456491712117884 0.0198548962882642
2500000000 -0.047459381284242 0.0258311793628567 0.269434595921515 0.915339921590025 0.269434475970464 0.915340371953165 -0.0474951679715174 0.0251916094557629
2550000000 -0.0484140067216664 0.0312749682178166 0.359583123305825 0.882597921787249 0.359583030119686 0.882598363527626 -0.0484245154284492 0.0308519038049462
2600000000 -0.0484429711229756 0.036884006452972 0.445901869050953 0.841015530198403 0.445901792013697 0.841015964292239 -0.0483865273060367 0.0366654499783143
2650000000 -0.0475237216474858 0.0424876493864569 0.527530899516396 0.791030427548831 0.527530828962629 0.791030859657501 -0.0473620405278444 0.0424539432310911
2700000000 -0.0456650748753272 0.047912304666867 0.603659807552892 0.733162343026352 0.603659736859924 0.733162783273991 -0.0453647071885708 0.0480369054459157
2750000000 -0.0429076080681462 0.0529871782053902 0.673535130493079 0.668007402853197 0.673535058246887 0.668007864662966 -0.0424412255702419 0.0532377057309758
2800000000 -0.0393230024569787 0.0575500785275579 0.736467096650072 0.596231919487416 0.736467028414071 0.596232417373242 -0.0386704713342089 0.0578896077126083
2850000000 -0.035012327456411 0.0614530899989108 0.79183569003326 0.518565709375447 0.791835639176955 0.518566255837586 -0.0341615240219129 0.0618416443816445
2900000000 -0.0301032884002467 0.0645679226558725 0.839096036795596 0.435795016538627 0.839096023904954 0.435795618504664 -0.0290506194128627 0.0649641199086842
2950000000 -0.0247464948643607 0.0667907494565906 0.877783126710466 0.348755105797733 0.877783177328081 0.348755761315955 -0.0234970941520015 0.0671535424742457
3000000000 -0.0191108409141595 0.0680463508817717 0.90751588794293 0.258322574272234 0.907516028764459 0.258323270300161 -0.0176784244091193 0.068336802971652
3050000000 -0.0133781216800804 0.0682914020058974 0.928000633056329 0.165407414350111 0.928000887159622 0.165408126397323 -0.0117844941880918 0.0684744314264893
3100000000 -0.00773704150595425 0.0675167583256332 0.939033888509431 0.0709448472390664 0.939034270581751 0.070945541274677 -0.00601126029235477 0.0675627860024325
3150000000 -0.00237679652322367 0.0657486235228135 0.940504609304421 -0.0241130648631881 0.940505121992186 -0.0241124283860233 -0.000554008887905333 0.0656350582996948
3200000000 0.00251956212886721 0.0630485145996011 0.932395765901363 -0.118806026446066 0.932396398226517 -0.118805487199514 0.00439957793283998 0.062761012954027
3250000000 0.00678176010470644 0.0595119769340217 0.914785273477806 -0.212174335362686 0.91478600175711 -0.212173927559708 0.0086763092513392 0.0590454188233925
3300000000 0.0102586905226268 0.0552660431062831 0.887846215922248 -0.303267921700185 0.887847006953917 -0.303267669550803 0.0121240784720955 0.0546251726377315
3350000000 0.0128243228609788 0.0504654739401551 0.851846300703424 -0.391155579181072 0.851847116403172 -0.391155494294235 0.0146179114168842 0.0496651629250096
3400000000 0.0143828932709326 0.0452878669217308 0.807146468143081 -0.474934350024594 0.807147270524882 -0.474934431079143 0.0160652236426728 0.0443529710261156
3450000000 0.0148731525320406 0.039927764514935 0.754198571748205 -0.553738999258771 0.754199327226452 -0.553739233668336 0.0164100564116954 0.0388925554024225
3500000000 0.0142714707512841 0.034589941049245 0.693542046977273 -0.626751485657334 0.693542729325574 -0.626751852543512 0.015636086247682 0.0334971132238104
3550000000 0.0125936309042608 0.0294820896601596 0.625799495501467 -0.693210306042337 0.625800087262226 -0.693210779703211 0.0137682390415064 0.0283813571036853
3600000000 0.0098951861936758 0.0248071677985608 0.551671131391423 -0.752419560360421 0.551671623921763 -0.752420113544153 0.0108727858574412 0.0237534823244634
3650000000 0.0062703081023411 0.0207556885643618 0.471928064600876 -0.803757559707583 0.471928457164501 -0.803758166264502 0.00705585293164823 0.0198071283839823
3700000000 0.00184911132053251 0.0174982630928564 0.387404434562007 -0.846684781353624 0.387404732922111 -0.846685418126581 0.00246034109654971 0.0167136556885361
3750000000 -0.00320649391985217 0.0151787042754717 0.298988450636219 -0.880750966506705 0.298988665511675 -0.880751614541198 -0.00273868250304492 0.0146150615542532
3800000000 -0.00870830524483672 0.0139079926565158 0.207612443676744 -0.905601160144088 0.207612589264877 -0.905601805414367 -0.00833998825772326 0.0136178477899617
3850000000 -0.0144485057106484 0.0137593806511487 0.114242080497444 -0.920980508881333 0.114242173101477 -0.920981142737778 -0.0141233842137634 0.013788124319168
3900000000 -0.0202072747933331 0.0147648715434227 0.0198649366830335 -0.926737662590718 0.0198649933607145 -0.926738282058121 -0.019857852217638 0.0151481899353498
3950000000 -0.025761042189828 0.0169132564268598 -0.0745213409771993 -0.922826667093428 -0.0745213038777791 -0.922827275030641 -0.0253103090500426 0.0176747739140405
4000000000 -0.0308910567298863 0.0201498278183673 -0.167921026554498 -0.909307286310659 -0.167920995079325 -0.909307891318247 -0.0302546444077311 0.0212990535209673
4050000000 -0.0353919210206964 0.0243778165286579 -0.259352194951332 -0.886343749287523 -0.259352159457917 -0.886344365161493 -0.0344806668548768 0.0259084861108593
4100000000 -0.039079737784464 0.0294615226079196 -0.347858227814199 -0.854201976284785 -0.347858185002196 -0.854202620788811 -0.0378025860594306 0.031350414839408
4150000000 -0.0417995265932822 0.0352310361941225 -0.432518703508183 -0.813245394115445 -0.432518658307974 -0.81324608689206 -0.0400666750314974 0.0374373286268923
4200000000 -0.0434315989762037 0.0414883741799083 -0.512459463505764 -0.763929499663493 -0.512459430462732 -0.763930259217358 -0.0411577886518147 0.043953584379715
4250000000 -0.0438966236513878 0.0480147975900446 -0.586861693297267 -0.706795368212307 -0.586861697038059 -0.706796208055804 -0.0410044622992547 0.0506633365140175
4300000000 -0.0431591689877003 0.0545790254096927 -0.654969909550969 -0.642462326950536 -0.654969983919119 -0.642463251180771 -0.0395823737320317 0.057319368569098
4350000000 -0.0412295732264116 0.0609460252892471 -0.716098802364207 -0.571620022171146 -0.716098987865699 -0.571621020943009 -0.0369160188549024 0.0636724861057357
4400000000 -0.0381640607908336 0.0668860409112995 -0.769638937429958 -0.49502010096711 -0.769639276751697 -0.495021146540788 -0.0330785237432929 0.0694811099720486
4450000000 -0.0340630916586335 0.0721835096506009 -0.815061373332826 -0.413467705745251 -0.81506190492837 -0.41346875000625 -0.0281895876070191 0.0745207041302915
4500000000 -0.0290679972176687 0.0766455314103323 -0.851921290057992 -0.327812944946508 -0.851922040196038 -0.327813919441157 -0.0224116210431857 0.0785926814049561
4550000000 -0.0233560179068929 0.0801095685344844 -0.879860753083265 -0.238942459274746 -0.879861727315982 -0.238943278731078 -0.0159442084477527 0.0815324519090742
4600000000 -0.0171339136590284 0.0824500855291306 -0.898610751118861 -0.147771153488725 -0.898611926716499 -0.147771723347157 -0.00901708117121682 0.0832163103549679
4650000000 -0.0106303668344186 0.0835838740689262 -0.907992643836278 -0.0552341137665585 -0.907993965085399 -0.0552343413942408 -0.00188183812771552 0.0835668977927609
4700000000 -0.00408743865481558 0.0834738517796546 -0.907919139167623 0.0377213157796902 -0.907920517266262 0.037721507580056 0.00519730698645535 0.0825570187724316
4750000000 0.00224862586147481 0.0821311713635553 -0.898394889508239 0.130143362508473 -0.898396208009023 0.130144021979532 0.0119534376499329 0.0802116453252589
4800000000 0.008136922710497 0.0796155290399297 -0.879516755040376 0.221083652845734 -0.87951788057677 0.221084788366171 0.0181271635310608 0.0766079940135496
4850000000 0.0133514023083587 0.0760336176728304 -0.851473733970017 0.309605143219435 -0.851474530765163 0.309606717219076 0.0234768038674737 0.0718736215508375
4900000000 0.0176900188169311 0.0715357302095081 -0.814546508042571 0.39479025609019 -0.814546853875249 0.39479218500117 0.0277881500482966 0.0661825481992441
4950000000 0.0209831600981971 0.0663105829652499 -0.769106502116587 0.475749302465038 -0.769106303240657 0.475751462689669 0.0308834292306937 0.0597494861175541
5000000000 0.0231010108298104 0.0605784952693669 -0.715614313910951 0.551629235528027 -0.71561351684487 0.551631474356914 0.0326290990850733 0.0528223213141664
5050000000 0.0239595214334757 0.0545831307632594 -0.65461733927858 0.621622728978367 -0.654615938145538 0.621624878775515 0.0329421253251775 0.0456730713521794
5100000000 0.0235246897754651 0.048582074026553 -0.586746403944362 0.684977511916823 -0.586744442847337 0.684979405740224 0.0317944305164316 0.038587614013802
5150000000 0.0218149125861164 0.0428365809774265 -0.5127112180108 0.741005824678397 -0.512708788559471 0.741007311683788 0.0292152563098833 0.0318545512907141
5200000000 0.0189012298660336 0.0376008984885898 -0.433294496623742 0.789093793037375 -0.433291731118173 0.789094752329971 0.0252912523764275 0.0257536338879332
5250000000 0.0149053675204792 0.0331115930318384 -0.349344638999412 0.828710458597214 -0.349341699972404 0.828710810495551 0.0201641932054077 0.020544218738061
5300000000 0.00999557875704458 0.029577354869296 -0.261766926307322 0.859416157890046 -0.261763993237993 0.859415871781526 0.0140263261025556 0.0164542604260397
5350000000 0.00438038922176158 0.0271697487477216 -0.171513282129305 0.880869918027842 -0.1715105362614 0.88086901614875 0.00711346572119425 0.0136703419585274
5400000000 -0.00169954146880507 0.0260153607745866 -0.0795707307099397 0.892835537444301 -0.0795683390832888 0.892834094077478 -0.000303934041031972 0.0123292272537442
5450000000 -0.00798112546656657 0.026189742563413 0.0130512202600516 0.895186048844777 0.0130531202475626 0.895184184677831 -0.0079313887502682 0.0125113653322283
5500000000 -0.0141897116102433 0.0277134786007311 0.105333963024652 0.887906317629877 0.105335277040323 0.887904189399202 -0.0154622323433765 0.0142366952839445
5550000000 -0.0200506292848857 0.0305506045076512 0.196263565144257 0.871093609406422 0.196264251812825 0.871091395457238 -0.0225901885590726 0.0174629953317019
5600000000 -0.0253008849515 0.0346094883375488 0.284844522914134 0.844956058494233 0.28484459884704 0.844953941442175 -0.0290220980500099 0.0220868950725068
5650000000 -0.0297004695830033 0.0397461621828939 0.370113069129903 0.809809077027251 0.370112608188842 0.809807225197585 -0.0344902180024384 0.0279475357807947
5700000000 -0.0330427519737961 0.0457699662222389 0.451149633777952 0.766069851420384 0.451148760306387 0.766068401043379 -0.0387635293835668 0.0348327292657509
5750000000 -0.0351634805182357 0.0524512511121247 0.527090108999627 0.714250169533373 0.527088985496441 0.714249209695966 -0.0416575383776413 0.0424873410629586
5800000000 -0.035947990373743 0.0595307855209168 0.597135648181085 0.654947898739146 0.597134458592514 0.654947460805923 -0.0430421386146307 0.0506235175016573
5850000000 -0.0353363074367294 0.0667304398787965 0.660560825791835 0.588837485331007 0.660559756117229 0.588837538003139 -0.0428472024192482 0.0589322951308148
5900000000 -0.0333259473442718 0.0737646687683148 0.716720090394776 0.516659865183273 0.716719308543272 0.516660315682522 -0.0410656839979302 0.0670960790281771
5950000000 -0.0299723184906924 0.0803522936593037 0.765052548187534 0.439212163439599 0.765052184967694 0.439212864644884 -0.0377541363344028 0.074801454547354
6000000000 -0.025386745197666 0.0862280931149475 0.805085209078796 0.357337519517744 0.80508534192599 0.357338282384196 -0.0330306584067859 0.0817518031306687
6050000000 -0.0197322245954574 0.0911537352831355 0.83643490364283 0.27191530785311 0.836435544337798 0.271915918178387 -0.0270703936101674 0.0876792227405793
6100000000 -0.0132171143981699 0.0949276322671782 0.858809131427408 0.183851941507577 0.858810218793749 0.183852180032683 -0.0200987895975313 0.0923553016576424
6150000000 -0.00608701674383205 0.0973933522820072 0.872006125576212 0.0940723531322609 0.872013742740656 0.0940825294122472 -0.0123807353901137 0.0955986962321635
6200000000 0.00138482420276116 0.098446288244764 0.875914414643062 0.00351215421877247 0.875923917399526 0.00352168843687807 -0.00421923698663367 0.0972894852692181
6250000000 0.00890825439819451 0.0980383466513239 0.870512131230592 -0.0868896128462637 0.870523480793567 -0.0868811877011152 0.00407019786015486 0.0973635477806702
6300000000 0.0161876876936963 0.0961804858220244 0.855866262081864 -0.176197287544002 0.855879282946769 -0.176190438212667 0.012162141909783 0.0958229535028735
6350000000 0.022929194969781 0.0929427790149564 0.832145439264574 -0.263480321772987 0.832146340737507 -0.263480328040325 0.0197365875989162 0.0927346286728675
6400000000 0.0288711358423335 0.0884540376856774 0.799566285840464 -0.347841520545875 0.799567261523258 -0.347841646716321 0.0264916938968204 0.0882284307712609
6450000000 0.0337672940861625 0.0828938851008862 0.758470681634267 -0.428388280035298 0.758471706455539 -0.428388560360412 0.0321560445291521 0.0824927729555306
6500000000 0.0374156858925311 0.0764894631840631 0.709274709092098 -0.504265463439793 0.709275745293376 -0.504265925369521 0.0364999640501747 0.0757678889411143
6550000000 0.0396630151280075 0.0695059764860331 0.652479875912701 -0.574656556243605 0.652480875480137 -0.574657215821358 0.0393454432326349 0.0683369075099003
6600000000 0.0404119188439754 0.0622364379821571 0.588671508950131 -0.638792277420192 0.588672417768016 -0.638793135649306 0.0405742420978747 0.060514990774319
6650000000 0.039626105288953 0.0549899810137116 0.518516202776323 -0.6959598458466 0.518516966061854 -0.695960886702206 0.0401337724262204 0.0526368805265017
6700000000 0.0373330728635565 0.0480791552250991 0.442757998008994 -0.745512762092956 0.442758566322226 -0.745513952631329 0.0380404166102714 0.0450432887227184
6750000000 0.0336241767930893 0.0418067040076085 0.362212997068188 -0.7868808532356 0.36221333204479 -0.786882145930178 0.0343800200038354 0.0380666551186242
6800000000 0.0286519133724907 0.0364523872383071 0.277762193774871 -0.819580225555617 0.277762272733997 -0.819581562631901 0.0293054010133581 0.0320168688551689
6850000000 0.0226244175348297 0.0322604570058424 0.190342395221583 -0.843222688663735 0.190342213955007 -0.843224007882927 0.0230308553906255 0.0271676017100023
6900000000 0.0157973126928329 0.0294284067382966 0.100935242669574 -0.857524165684389 0.100934815988959 -0.857525406797461 0.0158237829787714 0.0237439191623456
6950000000 0.00846320319883826 0.0280975885859849 0.0105544820453404 -0.862311596280963 0.0105538419975926 -0.862312707278533 0.00799372710643525 0.0219118134333051
7000000000 0.000939247333256787 0.0283462261599588 -0.079768219950716 -0.857527877351665 -0.0797690279537022 -0.857528819678266 -0.000120723760487174 0.0217702356459402
7050000000 -0.00644662117215269 0.0301852402899891 -0.16899848651615 -0.843234470029707 -0.16899940912564 -0.843235222095714 -0.00816658016668477 0.0233460922251701
7100000000 -0.0133701558780118 0.0335571598624481 -0.25611493798749 -0.819611425490918 -0.256115920185356 -0.819611984064782 -0.0157919389419879 0.0265925190144635
7150000000 -0.0195252203722584 0.0383382183454867 -0.340124804480113 -0.786954735032079 -0.3401257958848 -0.786955114383833 -0.0226615441296934 0.0313905659098072
7200000000 -0.0246374389141659 0.0443435533656508 -0.420078841677756 -0.745671076824468 -0.420079802113808 -0.745671305777095 -0.0284716373585393 0.0375542298274446
7250000000 -0.0284763861933204 0.0513352476612248 -0.495084988755557 -0.69627019533758 -0.495085892429071 -0.696270312631202 -0.0329633532956771 0.0448385815156391
7300000000 -0.0308657178625779 0.0590327906380974 -0.564320297100437 -0.639355292461484 -0.564321134910075 -0.639355341022844 -0.0359340066186762 0.0529505590037172
7350000000 -0.0316907719781582 0.0671254138476002 -0.627040786966079 -0.575611917120579 -0.627041566713906 -0.575611937941585 -0.0372457494208056 0.0615618618149866
7400000000 -0.030903325020823 0.0752856700033445 -0.682589042434217 -0.505795902396692 -0.682589786954807 -0.505795928749452 -0.0368312386136488 0.0703232855153565
7450000000 -0.0285233499966511 0.0831835873960322 -0.73039951667403 -0.430720911212106 -0.730400260143857 -0.430720963862699 -0.0346961260762347 0.0788797902362941
7500000000 -0.0246377837851114 0.0905007381285111 -0.770001673028131 -0.351246114698154 -0.770002455917863 -0.351246198632262 -0.0309183545533029 0.0868855982663885
7550000000 -0.0193964542458383 0.0969436032638595 -0.801021218410155 -0.268264447960256 -0.801022081666714 -0.268264550925925 -0.0256443964225182 0.0940186584335987
7600000000 -0.0130054361090155 0.102255691375026 -0.823179782883268 -0.182691776467969 -0.82318076195728 -0.182691869412608 -0.0190827010240257 0.0999938890719431
7650000000 -0.00571819413714074 0.106227958330406 -0.836293456445112 -0.0954571754446797 -0.836294575714381 -0.0954572147240834 -0.0114947144048674 0.104574705507728
7700000000 0.0021750675821135 0.108707175010256 -0.840270608778594 -0.00749438772453592 -0.840271876791985 -0.0074943188372453 -0.00318390267028299 0.10758244105257
7750000000 0.0103593966983786 0.109601987401014 -0.835109391842964 0.0802656048974749 -0.835110797677853 0.08026584233096 0.0055167500273976 0.108903373103993
7800000000 0.018507955963106 0.108886504291146 -0.820895263670849 0.166901075046754 -0.820896774622104 0.166901541301359 0.0142582796908798 0.108493161634627
7850000000 0.026295289938721 0.106601328886259 -0.79779878184084 0.251505373765739 -0.797800342680007 0.251506122221471 0.0226898243958878 0.106378592947418
7900000000 0.0334105328055088 0.102852022371766 -0.766073805442999 0.333192407172234 -0.76607533959155 0.333193476942546 0.0304727624731443 0.102656597156552
7950000000 0.0395701048757813 0.0978050524754273 -0.726056124287842 0.411102108994552 -0.726057537363545 0.411103517380745 0.0372944278875384 0.0974905761254946
8000000000 0.0445294562804673 0.0916813425754125 -0.678162413241506 0.484406237119445 -0.678163599437853 0.48440797264122 0.0428809329211511 0.0911041439349308
8050000000 0.0480934286724422 0.0847476013527475 -0.622889297494159 0.55231477183795 -0.622890149007385 0.552316789021074 0.0470086384820217 0.0837724492532252
8100000000 0.0501248228146236 0.0773056830356627 -0.560812220628335 0.614083110659992 -0.560812639772209 0.614085328106252 0.049513826675572 0.0758113223890033
8150000000 0.0505507867628673 0.0696803056255874 -0.49258374032583 0.669020144650597 -0.492583653111397 0.66902244793841 0.0503001540716619 0.0675645715458769
8200000000 0.0493666823297392 0.0622055380287549 -0.418930844147546 0.716497171875527 -0.418930213146791 0.716499422325197 0.0493435041518003 0.0593898422065133
8250000000 0.0466371527994758 0.0552105523697401 -0.340650885942876 0.755957464815823 -0.3406497195567 0.755959514007939 0.0466939205953096 0.0516435465044387
8300000000 0.0424942070524711 0.049005217339574 -0.258605795257093 0.786926172764888 -0.25860415049257 0.786927881076049 0.0424743947790333 0.0446654582256309
8350000000 0.037132255910349 0.0438661720639353 -0.173714307046065 0.809020120959039 -0.173712283897749 0.809021376736867 0.0368764035237739 0.038763643110888
8400000000 0.0308001829945383 0.0400240562204747 -0.0869420919957934 0.821956979465495 -0.0869398195007995 0.821957714497314 0.0301522447804263 0.0342004411305186
8450000000 0.0237906972530629 0.0376525700559001 0.000710171172447184 0.825563229204337 0.000712554705831311 0.825563426480536 0.0226043925296462 0.0311802252772201
8500000000 0.0164273854624094 0.0368599892097166 0.088220565328613 0.819780359150705 0.0882229334782611 0.819780050760195 0.0145722754549517 0.0298396204616139
8550000000 0.00905004482625973 0.0376836600579237 0.174561159922988 0.804668791857776 0.174563415724161 0.804668047618898 0.00641706057361588 0.0302407711974788
8600000000 0.00199901105465123 0.0400878538860394 0.258714157703557 0.780409151586315 0.258716243855538 0.780408061589635 -0.00149482553591103 0.0323680991969321
8650000000 -0.00440071024206698 0.0439651713868375 0.339688323907039 0.747300651156359 0.339690224205047 0.747299306713908 -0.00880859687376496 0.0361288001969175
8700000000 -0.00985466396438284 0.0491414775246938 0.416535008569246 0.705756564409549 0.416536741599921 0.705755041597606 -0.0151975373710664 0.0413571083715886
8750000000 -0.0141126978739228 0.0553841296763094 0.488363085753602 0.656296950544194 0.488364693476931 0.656295299064391 -0.0203780814614241 0.0478221263897482
8800000000 -0.0169805134133526 0.0624130596544514 0.554352209754039 0.599538982365435 0.554353744027623 0.599537220702324 -0.024122747557719 0.0552388012738916
8850000000 -0.0183284212080352 0.0699141017246539 0.613763919419018 0.536185381865187 0.613765429132768 0.536183498357569 -0.0262702636721174 0.0632814410999292
8900000000 -0.0180968861191129 0.077553838662994 0.665950292412144 0.467011567142481 0.665951813225394 0.467009525780605 -0.0267324055169331 0.0715990313044823
8950000000 -0.016298646148711 0.0849951745292018 0.710360041566082 0.39285215489007 0.710361589593882 0.392849904195103 -0.0254972734023051 0.0798315315232103
9000000000 -0.0130173905000863 0.0919128371968525 0.746542133945873 0.31458744074235 0.746543704112717 0.314584923732066 -0.0226289450284526 0.0876263165866449
9050000000 -0.00840316734329125 0.0980080601465584 0.774147179698929 0.233130401543603 0.774148748672049 0.233127564506016 -0.0182636383913449 0.0946539635701125
9100000000 -0.00266484816156147 0.103021780824405 0.79292696609963 0.149414641085769 0.79292849861764 0.149411438894063 -0.0126026880829555 0.10062267007922
9150000000 0.00393990473026751 0.106745808411953 0.80273259191908 0.0643835501390766 0.802734048107834 0.0643799464739693 -0.00590277044225491 0.105290703459027
9200000000 0.0111166398010164 0.109031543192646 0.803511684144165 -0.0210192096806226 0.803513024526794 -0.0210232474206075 0.00153609462121693 0.108476411854496
9250000000 0.0185475139557253 0.109795960677672 0.795305154850169 -0.105857943489076 0.795313906170957 -0.105858127529385 0.00938113548206214 0.110067547342706
9300000000 0.0259041437840466 0.109024523450095 0.778252214531081 -0.189213259675339 0.778252829447302 -0.189214015349741 0.0172942132593741 0.110018005274967
9350000000 0.0328673254849825 0.106772216725446 0.752553630549975 -0.270185300800599 0.752554238815341 -0.270186206597933 0.0249272840688796 0.108358825790445
9400000000 0.0391334487558156 0.103159086377835 0.718519426540756 -0.347901528354972 0.718520003001486 -0.347902620900826 0.0319505918878699 0.10519088976879
9450000000 0.044432575971536 0.0983660581971827 0.676533381810238 -0.421522851882771 0.676533882427857 -0.421524165962732 0.0380635886946488 0.100681251854676
9500000000 0.0485391198245482 0.0926264805702316 0.627059138056158 -0.490249161291443 0.627059498857876 -0.490250720960939 0.0430079067952677 0.0950556186000874
9550000000 0.0512818237662266 0.0862157949282404 0.570638215997658 -0.55332581206346 0.570638357200256 -0.553327622274866 0.0465785778459674 0.0885883541796891
9600000000 0.0525514753436472 0.0794393273089596 0.507887765024496 -0.610050781174497 0.50788759899785 -0.610052823493502 0.0486330401097538 0.081590370659154
9650000000 0.0523059898378721 0.0726186560827794 0.4394976726343 -0.659782544098857 0.439497111851663 -0.659784777755565 0.0490975289827174 0.0743953452607775
9700000000 0.0505725781197873 0.0660770904006407 0.366226643733482 -0.701948587995166 0.36622560507084 -0.701950953672944 0.047970517652219 0.0673447933815686
9750000000 0.0474468120470783 0.0601248661111628 0.288896886278175 -0.736054337220277 0.288895291411103 -0.736056758809453 0.045322970620178 0.0607726075612831
9800000000 0.0430885247306513 0.0550447219659061 0.208387111465639 -0.761692137916792 0.208384887028843 -0.76169451921758 0.0412952957587045 0.0549897398081847
9850000000 0.0377146294611833 0.0510785488317667 0.12562367127921 -0.778549844272802 0.125620753439529 -0.778552062094305 0.0360910290033889 0.0502697463024419
9900000000 0.0315891035730592 0.0484157986179673 0.0415698043960792 -0.786418485438141 0.0415661497101124 -0.786420383997335 0.0299674529863122 0.0468359186982989
9950000000 0.025010551385858 0.0471842899963802 -0.0427868720939927 -0.785198480051606 -0.0427912717172184 -0.785199871458595 0.0232235258306947 0.044850687056931
10000000000 0.0182979195196868 0.047443950880448 -0.126448321898364 -0.774903909360173 -0.126453424511274 -0.774904582015297 0.0161856651541555 0.0444078919185375
