! Touchstone file exported from HFSS 2025.1.0
!        File:           /home/solarstatiion/aedt-mcp/projects/microstrip_50ohm_fr4_20260802_162355/microstrip_50ohm_fr4.aedt
!        Generated:      04:26:53 PM Aug  2, 2026
!        Design:         Microstrip50Ohm
!        Project:        microstrip_50ohm_fr4
!        Setup:          Setup1
!        Solution:       Sweep1
!
# GHz S MA R 50.000000
! Terminal data exported
! Port[1] = Port1
! Port[2] = Port2
1                              0.0336508877993547 144.513386554487 0.978491343193386 -112.891099168122 0.978491343193386 -112.891099168122 0.0334034701885581 146.761436823046 
! Gamma         0                0                0                0                
! Port Impedance         50               0                50               0                
1.05                           0.0341300834689416 139.755110645933 0.977439982768687 -118.534080505776 0.977439982768684 -118.534080505775 0.0338881512909602 142.114984212641 
! Gamma         0                0                0                0                
! Port Impedance         50               0                50               0                
1.1                            0.034439783113385 135.012358640099 0.976391118452776 -124.177505012996 0.976391118452772 -124.177505012996 0.0342071968830022 137.487513044502 
! Gamma         0                0                0                0                
! Port Impedance         50               0                50               0                
1.15                           0.0345728911551877 130.294173076267 0.97534675357177 -129.821512102992 0.975346753571765 -129.821512102992 0.0343537676295064 132.88895493957  
! Gamma         0                0                0                0                
! Port Impedance         50               0                50               0                
1.2                            0.0345233050233549 125.609478107328 0.97430842797361 -135.466242993344 0.974308427973605 -135.466242993344 0.0343219903726656 128.329348650604 
! Gamma         0                0                0                0                
! Port Impedance         50               0                50               0                
1.25                           0.0342860026498299 120.967519634433 0.973277255920594 -141.111838631933 0.973277255920589 -141.111838631932 0.0341070563235494 123.819334283407 
! Gamma         0                0                0                0                
! Port Impedance         50               0                50               0                
1.3                            0.0338571303646159 116.378359221205 0.972253966297372 -146.758437805204 0.972253966297368 -146.758437805204 0.0337053252325816 119.370717274162 
! Gamma         0                0                0                0                
! Port Impedance         50               0                50               0                
1.35                           0.033234093760081 111.853470375527 0.971238943717958 -152.406175455867 0.971238943717955 -152.406175455867 0.0331144393152335 114.997156142383 
! Gamma         0                0                0                0                
! Port Impedance         50               0                50               0                
1.4                            0.0324156560592014 107.406504094682 0.970232269375396 -158.055181220697 0.970232269375394 -158.055181220697 0.0323334532790692 110.715048235247 
! Gamma         0                0                0                0                
! Port Impedance         50               0                50               0                
1.45                           0.0314020512840282 103.054322419824 0.969233760745921 -163.705578185404 0.96923376074592 -163.705578185404 0.0313629905737775 106.544721775829 
! Gamma         0                0                0                0                
! Port Impedance         50               0                50               0                
1.5                            0.0301951238136008 98.8184533436069 0.968243009524995 -169.357481843109 0.968243009524994 -169.357481843109 0.0302054419461653 102.512099238124 
! Gamma         0                0                0                0                
! Port Impedance         50               0                50               0                
1.55                           0.0287985131193194 94.7272150062547 0.967259417424853 -175.010999236185 0.967259417424853 -175.010999236185 0.0288652323080607 98.651091906087  
! Gamma         0                0                0                0                
! Port Impedance         50               0                50               0                
1.6                            0.0272179152494153 90.8189246991845 0.966282229691969 179.33377174196  0.966282229691969 179.33377174196  0.0273491991617409 95.0071461735474 
! Gamma         0                0                0                0                
! Port Impedance         50               0                50               0                
1.65                           0.0254614764425914 87.1469136663661 0.965310566398664 173.676742908362 0.965310566398664 173.676742908362 0.0256671568500614 91.6426384119048 
! Gamma         0                0                0                0                
! Port Impedance         50               0                50               0                
1.7                            0.023540420622311 83.7876433114689 0.964343451718185 168.017836235311 0.964343451718185 168.01783623531  0.0238327785925756 88.6452947531033 
! Gamma         0                0                0                0                
! Port Impedance         50               0                50               0                
1.75                           0.0214701070800058 80.8543337946213 0.96337984150096 162.356984193115 0.96337984150096 162.356984193115 0.0218650388362923 86.1416398822664 
! Gamma         0                0                0                0                
! Port Impedance         50               0                50               0                
1.8                            0.0192719169872036 78.5207368853179 0.962418649527945 156.694129998449 0.962418649527945 156.694129998449 0.0197906754761083 84.318844037774  
! Gamma         0                0                0                0                
! Port Impedance         50               0                50               0                
1.85                           0.0169768217638958 77.0641280195695 0.961458772824269 151.029227768112 0.961458772824269 151.029227768112 0.0176485606127071 83.4602265518313 
! Gamma         0                0                0                0                
! Port Impedance         50               0                50               0                
1.9                            0.014632547770257 76.9449331820906 0.960499116374671 145.362242570298 0.960499116374671 145.362242570298 0.0154976839916538 84.0004429047576 
! Gamma         0                0                0                0                
! Port Impedance         50               0                50               0                
1.95                           0.012318733055687 78.9510624991546 0.959538617496485 139.693150358529 0.959538617496484 139.693150358529 0.0134317212493836 86.5962349165376 
! Gamma         0                0                0                0                
! Port Impedance         50               0                50               0                
2                              0.0101794313441089 84.4110342718944 0.95857627000335 134.021937767948 0.95857627000335 134.021937767948 0.0116034015088053 92.146630666638  
! Gamma         0                0                0                0                
! Port Impedance         50               0                50               0                
2.05                           0.00848364316616198 95.1775877088914 0.957611148143136 128.348601750286 0.957611148143135 128.348601750286 0.0102517287011138 101.482440013669 
! Gamma         0                0                0                0                
! Port Impedance         50               0                50               0                
2.1                            0.00766425256273344 111.911098778599 0.956642430127836 122.673149022893 0.956642430127836 122.673149022893 0.00968051049130735 114.228376279573 
! Gamma         0                0                0                0                
! Port Impedance         50               0                50               0                
2.15                           0.00809128225842034 130.27327519412  0.955669420903793 116.995595309018 0.955669420903794 116.995595309018 0.0101002840356155 127.653316574237 
! Gamma         0                0                0                0                
! Port Impedance         50               0                50               0                
2.2                            0.00965577117884603 143.935760857907 0.954691573650204 111.3159643511   0.954691573650204 111.3159643511   0.0114489546063837 138.408955844307 
! Gamma         0                0                0                0                
! Port Impedance         50               0                50               0                
2.25                           0.0119408850675812 151.60983052818  0.953708509354613 105.63428668607  0.953708509354613 105.63428668607  0.0134700448808465 145.278865524407 
! Gamma         0                0                0                0                
! Port Impedance         50               0                50               0                
2.3                            0.0146112426178384 155.006083315482 0.952720033707486 99.95059818119   0.952720033707487 99.9505981811901 0.0159079977552549 148.827552807045 
! Gamma         0                0                0                0                
! Port Impedance         50               0                50               0                
2.35                           0.0174725886758682 155.746422071749 0.951726150493243 94.26493834046   0.951726150493243 94.26493834046   0.0185817029471151 150.000137995489 
! Gamma         0                0                0                0                
! Port Impedance         50               0                50               0                
2.4                            0.0204131584318972 154.842240864057 0.950727070639783 88.5773484042725 0.950727070639783 88.5773484042726 0.0213722973467403 149.550549781798 
! Gamma         0                0                0                0                
! Port Impedance         50               0                50               0                
2.45                           0.0233615716752504 152.883774132861 0.949723216126868 82.8878692783366 0.949723216126868 82.8878692783367 0.0241988990975341 147.989346606403 
! Gamma         0                0                0                0                
! Port Impedance         50               0                50               0                
2.5                            0.026266316641122 150.221721305083 0.948715218047285 77.1965393409521 0.948715218047286 77.1965393409522 0.0270021746959252 145.650188751353 
! Gamma         0                0                0                0                
! Port Impedance         50               0                50               0                
2.55                           0.0290862453491597 147.072851647606 0.9477039082618  71.5033921898397 0.9477039082618  71.5033921898397 0.0297351265324901 142.752727598411 
! Gamma         0                0                0                0                
! Port Impedance         50               0                50               0                
2.6                            0.0317860831369893 143.577044457394 0.94669030428461 65.8084544000966 0.946690304284611 65.8084544000966 0.032358153989231 139.444834155542 
! Gamma         0                0                0                0                
! Port Impedance         50               0                50               0                
2.65                           0.0343342586298038 139.828403050111 0.945675587272897 60.111743372776  0.945675587272897 60.111743372776  0.0348364250592599 135.82880376181  
! Gamma         0                0                0                0                
! Port Impedance         50               0                50               0                
2.7                            0.0367018596343995 135.892792077386 0.94466107326182 54.4132653584795 0.94466107326182 54.4132653584795 0.0371384890275687 131.977434891149 
! Gamma         0                0                0                0                
! Port Impedance         50               0                50               0                
2.75                           0.0388621639335984 131.818111462812 0.943648178073226 48.7130137417538 0.943648178073226 48.7130137417538 0.0392355688968704 127.944019671037 
! Gamma         0                0                0                0                
! Port Impedance         50               0                50               0                
2.8                            0.0407904769655394 127.640557696114 0.942638376619002 43.0109676696842 0.942638376619001 43.0109676696842 0.041101235497545 123.768689570298 
! Gamma         0                0                0                0                
! Port Impedance         50               0                50               0                
2.85                           0.0424641387693734 123.388595607117 0.941633157604831 37.307091101763  0.94163315760483 37.307091101763  0.0427113003066468 119.482553783774 
! Gamma         0                0                0                0                
! Port Impedance         50               0                50               0                
2.9                            0.043862625960414 119.085587993675 0.940633974903379 31.6013323479222 0.940633974903379 31.6013323479222 0.044043834704671 115.110479827879 
! Gamma         0                0                0                0                
! Port Impedance         50               0                50               0                
2.95                           0.0449677071525831 114.751625616954 0.939642197094754 25.8936241477959 0.939642197094754 25.8936241477959 0.0450792616418237 110.673028158084 
! Gamma         0                0                0                0                
! Port Impedance         50               0                50               0                
3                              0.0457636282371041 110.404883306211 0.938659056854882 20.1838843272085 0.938659056854881 20.1838843272085 0.0458004872389463 106.187858449631 
! Gamma         0                0                0                0                
! Port Impedance         50               0                50               0                
3.05                           0.0462373147191546 106.062710321764 0.937685601999316 14.4720170481105 0.937685601999315 14.4720170481105 0.0461930526112646 101.670813377687 
! Gamma         0                0                0                0                
! Port Impedance         50               0                50               0                
3.1                            0.0463785855932986 101.742600742965 0.936722650053083 8.75791464639153 0.936722650053083 8.7579146463915  0.0462452942428025 97.1368225794818 
! Gamma         0                0                0                0                
! Port Impedance         50               0                50               0                
3.15                           0.0461803790134876 97.4631608275824 0.935770748210831 3.04146002893713 0.935770748210831 3.04146002893713 0.0459485067499293 92.6007370564606 
! Gamma         0                0                0                0                
! Port Impedance         50               0                50               0                
3.2                            0.045638995622289 93.2451852809811 0.934830140472499 -2.67747042215398 0.934830140472499 -2.67747042215398 0.0452971061590688 88.0781941073817 
! Gamma         0                0                0                0                
! Port Impedance         50               0                50               0                
3.25                           0.0447543720874035 89.1129707904642 0.93390074358709 -8.39900351324967 0.93390074358709 -8.39900351324967 0.0442887958453601 83.5866231015063 
! Gamma         0                0                0                0                
! Port Impedance         50               0                50               0                
3.3                            0.0435304067648827 85.096036621088  0.932982133212286 -14.1232655673556 0.932982133212286 -14.1232655673556 0.0429247420341552 79.146537451269  
! Gamma         0                0                0                0                
! Port Impedance         50               0                50               0                
3.35                           0.0419753740497598 81.2314989344165 0.932073541404633 -19.850378532584 0.932073541404633 -19.850378532584 0.0412097727157665 74.7833312728202 
! Gamma         0                0                0                0                
! Port Impedance         50               0                50               0                
3.4                            0.0401024884375235 77.5674779197658 0.931173866200057 -25.580456002694 0.931173866200057 -25.580456002694 0.0391526255977379 70.5299395306985 
! Gamma         0                0                0                0                
! Port Impedance         50               0                50               0                
3.45                           0.03793072200953 74.1681399962972 0.93028169363646 -31.3135992933832 0.93028169363646 -31.3135992933832 0.0367662926185083 66.4309896245254 
! Gamma         0                0                0                0                
! Port Impedance         50               0                50               0                
3.5                            0.0354860558999594 71.1213480959645 0.929395332120375 -37.0498937250951 0.929395332120375 -37.0498937250951 0.0340685520633937 62.549604221556  
! Gamma         0                0                0                0                
! Port Impedance         50               0                50               0                
3.55                           0.0328034877746954 68.5504888170833 0.928512858561986 -42.7894052647522 0.928512858561986 -42.7894052647522 0.0310828710754612 58.9791128923011 
! Gamma         0                0                0                0                
! Port Impedance         50               0                50               0                
3.6                            0.0299303806648912 66.6329108035617 0.927632175213661 -48.53217767454  0.927632175213661 -48.53217767454  0.0278400673857421 55.8643163946077 
! Gamma         0                0                0                0                
! Port Impedance         50               0                50               0                
3.65                           0.0269322214666053 65.6282623500476 0.926751075664893 -54.2782303053981 0.926751075664893 -54.2782303053982 0.0243816160028454 53.4424319771736 
! Gamma         0                0                0                0                
! Port Impedance         50               0                50               0                
3.7                            0.0239026717334352 65.9189911270716 0.925867317991753 -60.0275566561406 0.925867317991753 -60.0275566561406 0.0207667855351413 52.1271068779487 
! Gamma         0                0                0                0                
! Port Impedance         50               0                50               0                
3.75                           0.0209807545708865 68.054298725418  0.924978702652929 -65.7801237963565 0.924978702652929 -65.7801237963565 0.0170894792873691 52.6914012299387 
! Gamma         0                0                0                0                
! Port Impedance         50               0                50               0                
3.8                            0.0183770214059189 72.7411406187246 0.924083152389183 -71.5358727229252 0.924083152389183 -71.5358727229252 0.0135217435062559 56.6727700804704 
! Gamma         0                0                0                0                
! Port Impedance         50               0                50               0                
3.85                           0.0163982031188773 80.5934390900086 0.923178791139166 -77.2947196869026 0.923178791139166 -77.2947196869026 0.01043028915569 67.0754553794638 
! Gamma         0                0                0                0                
! Port Impedance         50               0                50               0                
3.9                            0.0154180631638636 91.3579836409435 0.9222640188508  -83.0565584908086 0.9222640188508  -83.0565584908086 0.00860387902122727 87.483336889895  
! Gamma         0                0                0                0                
! Port Impedance         50               0                50               0                
3.95                           0.0157134233770989 103.100902667558 0.921337579058548 -88.8212637173035 0.921337579058548 -88.8212637173035 0.00902302202886593 112.776386637455 
! Gamma         0                0                0                0                
! Port Impedance         50               0                50               0                
4                              0.0172589044369401 113.125021824856 0.920398616222688 -94.5886948105054 0.920398616222688 -94.5886948105054 0.0115075905610178 130.071263933229 
! Gamma         0                0                0                0                
! Port Impedance         50               0                50               0                
4.05                           0.0197611757390853 120.002058280715 0.919446720090586 -100.358700892493 0.919446720090586 -100.358700892493 0.0150670516114988 138.131938254412 
! Gamma         0                0                0                0                
! Port Impedance         50               0                50               0                
4.1                            0.0228736668229079 123.842956158665 0.918481954738095 -106.131126161705 0.918481954738095 -106.131126161705 0.0190679115537898 140.839935667412 
! Gamma         0                0                0                0                
! Port Impedance         50               0                50               0                
4.15                           0.0263219091397559 125.342553704654 0.917504870470417 -111.905815688766 0.917504870470417 -111.905815688766 0.0232156606448167 140.695314786773 
! Gamma         0                0                0                0                
! Port Impedance         50               0                50               0                
4.2                            0.0299137874163326 125.171750847693 0.916516497387172 -117.682621400423 0.916516497387171 -117.682621400423 0.0273586682001629 138.947182411613 
! Gamma         0                0                0                0                
! Port Impedance         50               0                50               0                
4.25                           0.0335150977551378 123.828162325043 0.91551832012112 -123.461408025167 0.915518320121119 -123.461408025167 0.0314027694509789 136.233752845142 
! Gamma         0                0                0                0                
! Port Impedance         50               0                50               0                
4.3                            0.0370276829063963 121.654278063293 0.914512234013242 -129.242058765888 0.914512234013242 -129.242058765888 0.0352794632550505 132.904071490782 
! Gamma         0                0                0                0                
! Port Impedance         50               0                50               0                
4.35                           0.0403756521483848 118.882945158088 0.913500483755383 -135.024480466179 0.913500483755383 -135.024480466179 0.0389334356038934 129.162588812102 
! Gamma         0                0                0                0                
! Port Impedance         50               0                50               0                
4.4                            0.043497484667502 115.6743739893   0.912485586280146 -140.808608048039 0.912485586280146 -140.808608048039 0.0423173071377221 125.136617666288 
! Gamma         0                0                0                0                
! Port Impedance         50               0                50               0                
4.45                           0.046341619020702 112.141237992097 0.911470240372414 -146.59440801938 0.911470240372414 -146.59440801938 0.0453893206254741 120.909854216484 
! Gamma         0                0                0                0                
! Port Impedance         50               0                50               0                
4.5                            0.0488640053796175 108.364897155437 0.910457226086538 -152.381880879393 0.910457226086538 -152.381880879393 0.0481123261878117 116.540121912945 
! Gamma         0                0                0                0                
! Port Impedance         50               0                50               0                
4.55                           0.0510267588634406 104.405843283203 0.909449297551363 -158.171062287308 0.909449297551363 -158.171062287308 0.0504533784421439 112.069333122365 
! Gamma         0                0                0                0                
! Port Impedance         50               0                50               0                
4.6                            0.0527974384308464 100.310530439662 0.908449073111193 -163.962022904114 0.908449073111193 -163.962022904114 0.05238363653027 107.529402794774 
! Gamma         0                0                0                0                
! Port Impedance         50               0                50               0                
4.65                           0.0541486875149221 96.1159660089065 0.907458926969753 -169.754866865638 0.907458926969753 -169.754866865638 0.0538784189117394 102.945965713446 
! Gamma         0                0                0                0                
! Port Impedance         50               0                50               0                
4.7                            0.0550580880170558 91.8529200951663 0.906480886568379 -175.549728897287 0.906480886568379 -175.549728897287 0.054917338850051 98.3408713633701 
! Gamma         0                0                0                0                
! Port Impedance         50               0                50               0                
4.75                           0.0555081433777532 87.5482969425407 0.905516539836445 178.653229866185 0.905516539836445 178.653229866185 0.0554844831587548 93.7340033697063 
! Gamma         0                0                0                0                
! Port Impedance         50               0                50               0                
4.8                            0.0554863433370859 83.2270301153212 0.90456695620467 172.853827240314 0.90456695620467 172.853827240314 0.0555686165350102 89.1447584119618 
! Gamma         0                0                0                0                
! Port Impedance         50               0                50               0                
4.85                           0.0549852856728926 78.9137659702856 0.903632624877441 167.051866364781 0.90363262487744 167.051866364781 0.0551634060215717 84.5934189559521 
! Gamma         0                0                0                0                
! Port Impedance         50               0                50               0                
4.9                            0.0540028461017691 74.6345618828409 0.902713413329585 161.247142881238 0.902713413329585 161.247142881238 0.0542676697312648 80.1026200193354 
! Gamma         0                0                0                0                
! Port Impedance         50               0                50               0                
4.95                           0.0525424016632376 70.4188381432092 0.901808548339691 155.439452665974 0.901808548339691 155.439452665974 0.0528856644095354 75.6991270235426 
! Gamma         0                0                0                0                
! Port Impedance         50               0                50               0                
5                              0.0506131299086816 66.3018926850546 0.900916621112548 149.628599837137 0.900916621112548 149.628599837137 0.0510274414247897 71.4162139194873 
! Gamma         0                0                0                0                
! Port Impedance         50               0                50               0                
5.05                           0.048230432305301 62.3284439618485 0.90003561719661 143.814404734311 0.90003561719661 143.814404734311 0.0487093260754661 67.2970835350993 
! Gamma         0                0                0                0                
! Port Impedance         50               0                50               0                
5.1                            0.0454165763814216 58.5579734438214 0.899162970990791 137.996711556711 0.899162970990791 137.996711556711 0.0459546212977399 63.400063793982  
! Gamma         0                0                0                0                
! Port Impedance         50               0                50               0                
5.15                           0.0422017394461185 55.0732307134425 0.898295643684212 132.175395346104 0.898295643684212 132.175395346104 0.0427947256101255 59.8068647058575 
! Gamma         0                0                0                0                
! Port Impedance         50               0                50               0                
5.2                            0.0386258158364244 51.9944250438377 0.897430222512749 126.350368012615 0.897430222512749 126.350368012615 0.0392710333431573 56.6362365470674 
! Gamma         0                0                0                0                
! Port Impedance         50               0                50               0                
5.25                           0.034741732465054 49.5039510686166 0.896563038281577 120.521583125998 0.896563038281577 120.521583125998 0.0354383590800086 54.067414252738  
! Gamma         0                0                0                0                
! Port Impedance         50               0                50               0                
5.3                            0.0306218774229284 47.8911538255274 0.895690297231918 114.689039231858 0.895690297231919 114.689039231858 0.0313714456234087 52.3816313225947 
! Gamma         0                0                0                0                
! Port Impedance         50               0                50               0                
5.35                           0.0263712551651184 47.6353413967188 0.894808222564034 108.852781500957 0.894808222564034 108.852781500957 0.0271779498227113 52.03660791624   
! Gamma         0                0                0                0                
! Port Impedance         50               0                50               0                
5.4                            0.0221556557040362 49.5558764270702 0.893913200309977 103.012901579003 0.893913200309977 103.012901579003 0.0230253098543305 53.794322212431  
! Gamma         0                0                0                0                
! Port Impedance         50               0                50               0                
5.45                           0.0182622048472929 55.0286171199939 0.89300192381993 97.169535572382  0.89300192381993 97.169535572382  0.0191957305048841 58.8860881503405 
! Gamma         0                0                0                0                
! Port Impedance         50               0                50               0                
5.5                            0.0152095262382041 65.9284619655794 0.892071530921523 91.322860179715  0.892071530921523 91.322860179715  0.0161792851227728 68.9073954740456 
! Gamma         0                0                0                0                
! Port Impedance         50               0                50               0                
5.55                           0.0137996031416175 82.7272268602105 0.89111972786109 85.4730870568927 0.89111972786109 85.4730870568927 0.014708364529207 84.2347984741308 
! Gamma         0                0                0                0                
! Port Impedance         50               0                50               0                
5.6                            0.0146533312279382 100.726143944675 0.890144894455433 79.6204555809461 0.890144894455432 79.6204555809461 0.015371051507821 101.015774833248 
! Gamma         0                0                0                0                
! Port Impedance         50               0                50               0                
5.65                           0.0174851829655827 113.7426889971   0.889146165474695 73.7652242519716 0.889146165474694 73.7652242519716 0.017979114722022 113.737134655027 
! Gamma         0                0                0                0                
! Port Impedance         50               0                50               0                
5.7                            0.021505562261984 120.815386161198 0.888123484126264 67.9076610386191 0.888123484126265 67.9076610386192 0.0218269678991886 121.000127656248 
! Gamma         0                0                0                0                
! Port Impedance         50               0                50               0                
5.75                           0.0261054447078793 123.723023652801 0.887077624584501 62.0480330277393 0.887077624584501 62.0480330277393 0.0263126060262846 124.17025050484  
! Gamma         0                0                0                0                
! Port Impedance         50               0                50               0                
5.8                            0.0309322176745429 124.057690328538 0.886010181763747 56.1865957795891 0.886010181763747 56.1865957795891 0.0310669020324436 124.715558027552 
! Gamma         0                0                0                0                
! Port Impedance         50               0                50               0                
5.85                           0.035779859019784 122.801038071279 0.884923527901913 50.3235828140323 0.884923527901913 50.3235828140323 0.0358691681909145 123.604588933556 
! Gamma         0                0                0                0                
! Port Impedance         50               0                50               0                
5.9                            0.0405150254422576 120.525458549323 0.883820736939222 44.4591956589304 0.883820736939222 44.4591956589304 0.0405762330387902 121.421127133493 
! Gamma         0                0                0                0                
! Port Impedance         50               0                50               0                
5.95                           0.0450415796809318 117.571887046504 0.882705479069188 38.5935948788029 0.882705479069188 38.5935948788029 0.0450855936374663 118.519031474742 
! Gamma         0                0                0                0                
! Port Impedance         50               0                50               0                
6                              0.0492842332164322 114.151858630203 0.881581889135489 32.7268924703375 0.881581889135489 32.7268924703375 0.0493177213734944 115.119915018747 
! Gamma         0                0                0                0                
! Port Impedance         50               0                50               0                
6.05                           0.0531808207403461 110.402524712098 0.880454413686477 26.8591459628571 0.880454413686477 26.8591459628571 0.0532074934497626 111.368106543407 
! Gamma         0                0                0                0                
! Port Impedance         50               0                50               0                
6.1                            0.0566785441455916 106.416714626731 0.879327642427137 20.9903544986908 0.879327642427137 20.9903544986908 0.0566999432535353 107.361391737743 
! Gamma         0                0                0                0                
! Port Impedance         50               0                50               0                
6.15                           0.0597321253585987 102.259945737649 0.878206130489695 15.1204570934462 0.878206130489695 15.1204570934462 0.0597481231812457 103.168648224673 
! Gamma         0                0                0                0                
! Port Impedance         50               0                50               0                
6.2                            0.0623029203543675 97.9804534236519 0.87709421835781 9.24933319279045 0.87709421835781 9.24933319279045 0.0623120428656345 98.8403276242722 
! Gamma         0                0                0                0                
! Port Impedance         50               0                50               0                
6.25                           0.0643585362083561 93.6153711351043 0.875995856419418 3.37680555398667 0.875995856419418 3.37680555398663 0.0643581745570782 94.4149388231019 
! Gamma         0                0                0                0                
! Port Impedance         50               0                50               0                
6.3                            0.0658727185689333 89.194726844744  0.874914440996777 -2.49735460933501 0.874914440996777 -2.49735460933501 0.0658592651873056 89.9232395514661 
! Gamma         0                0                0                0                
! Port Impedance         50               0                50               0                
6.35                           0.0668253863343237 84.7441811187709 0.873852668326416 -8.37342036862285 0.873852668326416 -8.37342036862285 0.0667943160192382 85.3910935174063 
! Gamma         0                0                0                0                
! Port Impedance         50               0                50               0                
6.4                            0.06720274650122 80.2870490571998 0.87281241235997 -14.2516999405289 0.87281241235997 -14.2516999405289 0.0671486532743412 80.8415564704247 
! Gamma         0                0                0                0                
! Port Impedance         50               0                50               0                
6.45                           0.0669974532884601 75.8459497335169 0.871794631456595 -20.1325259736222 0.871794631456595 -20.1325259736224 0.0669140474045566 76.2965473651764 
! Gamma         0                0                0                0                
! Port Impedance         50               0                50               0                
6.5                            0.0662087952401983 71.4443296818199 0.870799308066506 -26.0162436351041 0.870799308066507 -26.0162436351041 0.0660888595122684 71.7783575436143 
! Gamma         0                0                0                0                
! Port Impedance         50               0                50               0                
6.55                           0.064842909355131 67.1080734819158 0.869825424390569 -31.9031979244645 0.869825424390569 -31.9031979244646 0.0646782086613465 67.3112130582152 
! Gamma         0                0                0                0                
! Port Impedance         50               0                50               0                
6.6                            0.0629130373080069 62.8674313631148 0.868870975769124 -37.7937206807839 0.868870975769123 -37.7937206807839 0.0626941685449049 62.9231195717037 
! Gamma         0                0                0                0                
! Port Impedance         50               0                50               0                
6.65                           0.0604398604198924 58.7595654594835 0.867933022230731 -43.6881177747775 0.867933022230731 -43.6881177747777 0.0601560208940042 58.6482911661356 
! Gamma         0                0                0                0                
! Port Impedance         50               0                50               0                
6.7                            0.0574519842391733 54.832166383982  0.867007777246849 -49.5866569843703 0.86700777724685 -49.5866569843704 0.0570906226714772 54.5306210725374 
! Gamma         0                0                0                0                
! Port Impedance         50               0                50               0                
6.75                           0.0539867030339658 51.1488723004099 0.866090731324089 -55.4895570424127 0.866090731324088 -55.4895570424127 0.0535329963017709 50.6289567586287 
! Gamma         0                0                0                0                
! Port Impedance         50               0                50               0                
6.8                            0.0500912841611767 47.7977359684504 0.865176806661222 -61.3969783163293 0.865176806661222 -61.3969783163293 0.0495273511342884 47.0255267493773 
! Gamma         0                0                0                0                
! Port Impedance         50               0                50               0                
6.85                           0.0458252242261393 44.9049215638625 0.864260537750939 -67.3090155316917 0.864260537750939 -67.3090155316917 0.0451289432231154 43.8400092543777 
! Gamma         0                0                0                0                
! Port Impedance         50               0                50               0                
6.9                            0.0412643544678925 42.6574919169722 0.863336271572633 -73.2256928852599 0.863336271572633 -73.2256928852599 0.0404076024413338 41.2540078454537 
! Gamma         0                0                0                0                
! Port Impedance         50               0                50               0                
6.95                           0.0365085486334992 41.3419226371285 0.862398379965708 -79.1469618090759 0.862398379965708 -79.146961809076 0.0354546969330262 39.5552256171702 
! Gamma         0                0                0                0                
! Port Impedance         50               0                50               0                
7                              0.0316965735476555 41.4081739325367 0.861441475959671 -85.0727015478775 0.86144147595967 -85.0727015478776 0.0303974824673739 39.2189742888828 
! Gamma         0                0                0                0                
! Port Impedance         50               0                50               0                
7.05                           0.0270348701861499 43.5647757009391 0.860460625333917 -91.0027226006152 0.860460625333917 -91.0027226006153 0.0254297759313575 41.0543913569159 
! Gamma         0                0                0                0                
! Port Impedance         50               0                50               0                
7.1                            0.0228499199346832 48.8547204777382 0.859451544543542 -96.9367729575631 0.859451544543542 -96.9367729575631 0.0208772715031736 46.4121410451581 
! Gamma         0                0                0                0                
! Port Impedance         50               0                50               0                
7.15                           0.0196571636136161 58.404752648803  0.858410776420229 -102.874546942657 0.858410776420229 -102.874546942657 0.0173139171049051 57.1201941733489 
! Gamma         0                0                0                0                
! Port Impedance         50               0                50               0                
7.2                            0.0181337422892893 72.083556710659  0.857335835758997 -108.815696352317 0.857335835758997 -108.815696352317 0.0156086662946188 73.6440231624699 
! Gamma         0                0                0                0                
! Port Impedance         50               0                50               0                
7.25                           0.0187437442369031 86.729630082196  0.856225318023804 -114.759843473463 0.856225318023803 -114.759843473463 0.0164146028593803 91.4458945635822 
! Gamma         0                0                0                0                
! Port Impedance         50               0                50               0                
7.3                            0.0212729781318011 98.2245081149199 0.855078965909204 -120.706595470995 0.855078965909204 -120.706595470995 0.0193874110249257 104.441853500847 
! Gamma         0                0                0                0                
! Port Impedance         50               0                50               0                
7.35                           0.0250574321677712 105.249123247747 0.85389769031128 -126.65555956428 0.85389769031128 -126.65555956428 0.0236284604491455 111.578637257593 
! Gamma         0                0                0                0                
! Port Impedance         50               0                50               0                
7.4                            0.0294901523950939 108.646880822798 0.852683544293292 -132.606358367765 0.852683544293292 -132.606358367765 0.0284426827534188 114.568131001349 
! Gamma         0                0                0                0                
! Port Impedance         50               0                50               0                
7.45                           0.0341685349533135 109.570803074525 0.851439650764584 -138.558644755606 0.851439650764583 -138.558644755606 0.0334267520881505 114.987679639472 
! Gamma         0                0                0                0                
! Port Impedance         50               0                50               0                
7.5                            0.0388401636752467 108.870518232715 0.850170086700416 -144.512115625424 0.850170086700416 -144.512115625424 0.0383461809447828 113.82110506295  
! Gamma         0                0                0                0                
! Port Impedance         50               0                50               0                
7.55                           0.0433392650340494 107.094760120479 0.848879728693166 -150.466523981201 0.848879728693166 -150.466523981201 0.0430513792407686 111.646099583473 
! Gamma         0                0                0                0                
! Port Impedance         50               0                50               0                
7.6                            0.0475490213218817 104.592170754067 0.847574066331438 -156.421688827257 0.847574066331438 -156.421688827257 0.0474371529936967 108.808982765138 
! Gamma         0                0                0                0                
! Port Impedance         50               0                50               0                
7.65                           0.0513819927023031 101.589037081666 0.846258991264703 -162.377502460182 0.846258991264703 -162.377502460182 0.0514240063735878 105.526444150272 
! Gamma         0                0                0                0                
! Port Impedance         50               0                50               0                
7.7                            0.0547701290668525 98.2374242782844 0.844940570767214 -168.333934857956 0.844940570767212 -168.333934857955 0.0549493175056987 101.940787717447 
! Gamma         0                0                0                0                
! Port Impedance         50               0                50               0                
7.75                           0.0576596103994952 94.6437436217551 0.843624815136458 -174.291034989444 0.843624815136458 -174.291034989444 0.0579630485515426 98.1502890088484 
! Gamma         0                0                0                0                
! Port Impedance         50               0                50               0                
7.8                            0.0600081367469712 90.8858640084579 0.842317448349078 179.751071003482 0.842317448349078 179.751071003482 0.0604256225543563 94.2264985979753 
! Gamma         0                0                0                0                
! Port Impedance         50               0                50               0                
7.85                           0.0617834890135833 87.0236795932227 0.841023691077075 173.792184670714 0.841023691077073 173.792184670714 0.0623068784369825 90.2245809963286 
! Gamma         0                0                0                0                
! Port Impedance         50               0                50               0                
7.9                            0.0629627657881157 83.1059394938985 0.839748064485498 167.832042963143 0.8397480644855  167.832042963143 0.0635855826273432 86.1898558899957 
! Gamma         0                0                0                0                
! Port Impedance         50               0                50               0                
7.95                           0.0635319921899293 79.1749519679922 0.838494222247345 161.870328473009 0.838494222247347 161.870328473009 0.0642492418418978 82.1622528579999 
! Gamma         0                0                0                0                
! Port Impedance         50               0                50               0                
8                              0.0634859493916673 75.2701295617876 0.837264816985463 155.906681795669 0.837264816985462 155.906681795669 0.0642940963299768 78.1796609098208 
! Gamma         0                0                0                0                
! Port Impedance         50               0                50               0                
8.05                           0.0628281609834171 71.4310049964894 0.8360614059469  149.940715524183 0.8360614059469  149.940715524183 0.0637252492904084 74.2807902950668 
! Gamma         0                0                0                0                
! Port Impedance         50               0                50               0                
8.1                            0.0615710305491875 67.70019125521   0.834884399189141 143.97202932857  0.834884399189146 143.97202932857  0.0625569400210662 70.507995828751  
! Gamma         0                0                0                0                
! Port Impedance         50               0                50               0                
8.15                           0.0597361738616455 64.1267218418007 0.833733051959816 138.00022553259  0.833733051959816 138.00022553259  0.0608130139325267 66.9104597940531 
! Gamma         0                0                0                0                
! Port Impedance         50               0                50               0                
8.2                            0.0573550440704588 60.7702669174061 0.832605501325282 132.024924583282 0.832605501325279 132.024924583281 0.0585276951674353 63.5481644373373 
! Gamma         0                0                0                0                
! Port Impedance         50               0                50               0                
8.25                           0.0544700260294282 57.7068817124676 0.831498845486109 126.045779812408 0.831498845486106 126.045779812407 0.0557468413250796 60.4971847810963 
! Gamma         0                0                0                0                
! Port Impedance         50               0                50               0                
8.3                            0.0511363014413098 55.0372208621011 0.830409262646263 120.062490914453 0.830409262646262 120.062490914453 0.052529973523613 57.8569821930076 
! Gamma         0                0                0                0                
! Port Impedance         50               0                50               0                
8.35                           0.0474250001875774 52.8985365339953 0.829332164814646 114.074815612463 0.829332164814652 114.074815612462 0.0489535537793718 55.7604978846658 
! Gamma         0                0                0                0                
! Port Impedance         50               0                50               0                
8.4                            0.0434285155255304 51.4820967096152 0.828262380555434 108.082579049894 0.828262380555437 108.082579049894 0.0451162473042901 54.387635889317  
! Gamma         0                0                0                0                
! Port Impedance         50               0                50               0                
8.45                           0.0392694277338864 51.057089652108  0.827194359513692 102.085680532469 0.82719435951369 102.085680532468 0.0411472241139811 53.9812309504445 
! Gamma         0                0                0                0                
! Port Impedance         50               0                50               0                
8.5                            0.0351151283711866 51.9975985140685 0.826122390579913 96.0840973464913 0.826122390579907 96.0840973464911 0.0372186168545318 54.8591301619248 
! Gamma         0                0                0                0                
! Port Impedance         50               0                50               0                
8.55                           0.031199889345509 54.7916773557447 0.825040824874098 90.077885496401  0.825040824874096 90.0778854964008 0.0335618284273909 57.400533243109  
! Gamma         0                0                0                0                
! Port Impedance         50               0                50               0                
8.6                            0.0278502977703224 59.9619940088213 0.823944294382523 84.0671773303607 0.823944294382515 84.0671773303604 0.0304809800943572 61.9527908419909 
! Gamma         0                0                0                0                
! Port Impedance         50               0                50               0                
8.65                           0.0254876064402519 67.7516577404069 0.822827917112011 78.0521761537591 0.822827917112016 78.0521761537587 0.0283402741369714 68.5816217111874 
! Gamma         0                0                0                0                
! Port Impedance         50               0                50               0                
8.7                            0.024541577022361 77.5354861931561 0.821687480068182 72.0331480608167 0.821687480068179 72.0331480608165 0.0274846965330352 76.7079592752176 
! Gamma         0                0                0                0                
! Port Impedance         50               0                50               0                
8.75                           0.0252431410257038 87.5818791295983 0.820519592224316 66.010411337955  0.820519592224326 66.0104113379553 0.0280914028351975 85.0372678344213 
! Gamma         0                0                0                0                
! Port Impedance         50               0                50               0                
8.8                            0.0274665024935873 95.9935469674814 0.819321800909676 59.9843239027642 0.81932180090967 59.9843239027639 0.0300666691618303 92.1658421811525 
! Gamma         0                0                0                0                
! Port Impedance         50               0                50               0                
8.85                           0.0308266489822524 101.86592460216  0.818092666662646 53.955269333267  0.818092666662642 53.9552693332673 0.0331064493125876 97.3118473718446 
! Gamma         0                0                0                0                
! Port Impedance         50               0                50               0                
8.9                            0.0348968648902754 105.294400497461 0.816831793494001 47.9236421083961 0.816831793494001 47.9236421083961 0.036846622162962 100.409383002708 
! Gamma         0                0                0                0                
! Port Impedance         50               0                50               0                
8.95                           0.0393285113357777 106.778564255093 0.815539813588292 41.8898327180658 0.815539813588292 41.8898327180658 0.0409649653452524 101.766731473496 
! Gamma         0                0                0                0                
! Port Impedance         50               0                50               0                
9                              0.0438657552086174 106.831466657999 0.81421832762732 35.8542133075355 0.81421832762732 35.8542133075355 0.0452089962996046 101.77174179572  
! Gamma         0                0                0                0                
! Port Impedance         50               0                50               0                
9.05                           0.0483240327921373 105.859461347379 0.812869804025501 29.8171244951502 0.812869804025501 29.8171244951502 0.0493877813152068 100.764854520332 
! Gamma         0                0                0                0                
! Port Impedance         50               0                50               0                
9.1                            0.0525677073206293 104.159300333596 0.811497442308413 23.7788639462559 0.811497442308413 23.7788639462559 0.0533564398905536 99.0115960433078 
! Gamma         0                0                0                0                
! Port Impedance         50               0                50               0                
9.15                           0.0564946388296487 101.943840033347 0.810105007538762 17.7396772020735 0.810105007538773 17.7396772020737 0.0570033492190861 96.7110441784297 
! Gamma         0                0                0                0                
! Port Impedance         50               0                50               0                
9.2                            0.0600267128632553 99.3672852113378 0.808696644016778 11.699751154842  0.808696644016783 11.6997511548421 0.0602414377567519 94.0117748794932 
! Gamma         0                0                0                0                
! Port Impedance         50               0                50               0                
9.25                           0.0631042403953875 96.5441070667744 0.807276677398776 5.65921043507813 0.807276677398776 5.65921043507813 0.0630026562657649 91.0262179488798 
! Gamma         0                0                0                0                
! Port Impedance         50               0                50               0                
9.3                            0.0656826759303803 93.5621871289376 0.805849414860779 -0.381883160680564 0.805849414860788 -0.381883160680066 0.065234548350291 87.8416680987765 
! Gamma         0                0                0                0                
! Port Impedance         50               0                50               0                
9.35                           0.0677307028591726 90.4918195810219 0.804418952980317 -6.42352821676591 0.804418952980322 -6.42352821676569 0.06689813727424 84.5283537394833 
! Gamma         0                0                0                0                
! Port Impedance         50               0                50               0                
9.4                            0.0692291446674568 87.391967418463  0.802989002640428 -12.4657783785479 0.802989002640428 -12.4657783785479 0.0679666374748449 81.1453706208362 
! Gamma         0                0                0                0                
! Port Impedance         50               0                50               0                
9.45                           0.0701704068675482 84.3147523189999 0.801562739508063 -18.5087344628588 0.801562739508063 -18.5087344628588 0.0684247067383204 77.745206871375  
! Gamma         0                0                0                0                
! Port Impedance         50               0                50               0                
9.5                            0.0705582955168361 81.3088201312101 0.800142687551482 -24.552534424062 0.800142687551482 -24.552534424062 0.0682680901773252 74.3774254152297 
! Gamma         0                0                0                0                
! Port Impedance         50               0                50               0                
9.55                           0.0704081348650435 78.4219837834858 0.798730641681516 -30.5973417157302 0.798730641681518 -30.5973417157306 0.0675035941302107 71.0919391660026 
! Gamma         0                0                0                0                
! Port Impedance         50               0                50               0                
9.6                            0.06974714299629 75.703372963581  0.797327633980435 -36.6433326851831 0.797327633980435 -36.6433326851831 0.0661493868997235 67.9422324086557 
! Gamma         0                0                0                0                
! Port Impedance         50               0                50               0                
9.65                           0.0686150327535883 73.2051800769653 0.795933946158106 -42.6906837152524 0.795933946158106 -42.6906837152524 0.0642356689617558 64.9888411527788 
! Gamma         0                0                0                0                
! Port Impedance         50               0                50               0                
9.7                            0.0670647902859837 70.9839522873016 0.794549168892117 -48.739558882017 0.794549168892117 -48.739558882017 0.0618058000504131 62.3033883121563 
! Gamma         0                0                0                0                
! Port Impedance         50               0                50               0                
9.75                           0.0651635429662189 69.1012093026096 0.793172306605892 -54.7900989263934 0.793172306605892 -54.7900989263934 0.0589180245114767 59.9734409437105 
! Gamma         0                0                0                0                
! Port Impedance         50               0                50               0                
9.8                            0.0629933525792991 67.622939875857  0.791801924059768 -60.8424123392552 0.791801924059761 -60.8424123392554 0.055648005013411 58.1083334996983 
! Gamma         0                0                0                0                
! Port Impedance         50               0                50               0                
9.85                           0.0606516415319746 66.6172409024437 0.790436328927711 -66.8965693322041 0.790436328927705 -66.8965693322042 0.0520924467920319 56.845682043798  
! Gamma         0                0                0                0                
! Port Impedance         50               0                50               0                
9.9                            0.0582507604948376 66.1490700945536 0.78907378237005 -72.9525994077122 0.78907378237005 -72.9525994077122 0.048374105016592 56.3571374910152 
! Gamma         0                0                0                0                
! Port Impedance         50               0                50               0                
9.95                           0.0559159372967635 66.2709953315446 0.787712727564017 -79.010493152456 0.787712727564017 -79.010493152456 0.0446482038530957 56.8490585806725 
! Gamma         0                0                0                0                
! Port Impedance         50               0                50               0                
10                             0.053780587265113 67.0093984696719 0.786352024309655 -85.0702087565433 0.786352024309655 -85.0702087565433 0.0411092096134816 58.5478777524694 
! Gamma         0                0                0                0                
! Port Impedance         50               0                50               0                
